
 displacements (vx,vy,vz) for set NALL and time  0.1000000E+00

         2  0.000000E+00  0.000000E+00  0.000000E+00
        10  1.362336E-05  0.000000E+00  0.000000E+00
        11  6.811680E-06 -2.042011E-20  0.000000E+00
        12 -4.325824E-20 -6.811680E-06  0.000000E+00
        13 -1.068386E-19 -1.362336E-05  0.000000E+00
        33  1.860837E-19 -8.644037E-20  3.952214E-05
        34  7.185294E-19 -2.825745E-19  7.904427E-05
        93  1.362336E-05 -6.811680E-06  0.000000E+00
        95  1.362336E-05 -1.362336E-05  0.000000E+00
        96  6.811680E-06 -1.362336E-05  0.000000E+00
       103  1.362336E-05 -1.082767E-19  3.952214E-05
       105  1.362336E-05 -3.183716E-19  7.904427E-05
       106  6.811680E-06 -3.068991E-19  7.904427E-05
       132  6.802679E-20 -1.362336E-05  3.952214E-05
       133  6.634494E-19 -6.811680E-06  7.904427E-05
       134  5.839829E-19 -1.362336E-05  7.904427E-05
       219  1.362336E-05 -1.362336E-05  3.952214E-05
       220  1.362336E-05 -6.811680E-06  7.904427E-05
       222  1.362336E-05 -1.362336E-05  7.904427E-05
       223  6.811680E-06 -1.362336E-05  7.904427E-05

 forces (fx,fy,fz) for set NALL and time  0.1000000E+00

         2 -9.091450E-06  9.091450E-06  4.166353E-01
        10  9.091450E-06  9.091450E-06  4.166353E-01
        11  3.260145E-16 -3.636580E-05 -1.666541E+00
        12  3.636580E-05 -2.321573E-16 -1.666541E+00
        13 -9.091450E-06 -9.091450E-06  4.166353E-01
        33  3.636580E-05 -3.636580E-05 -1.650236E-16
        34 -9.091450E-06  9.091450E-06 -4.166353E-01
        93 -3.636580E-05 -9.282748E-17 -1.666541E+00
        95  9.091450E-06 -9.091450E-06  4.166353E-01
        96  4.056340E-16  3.636580E-05 -1.666541E+00
       103 -3.636580E-05 -3.636580E-05 -3.898929E-16
       105  9.091450E-06  9.091450E-06 -4.166353E-01
       106  1.015975E-15 -3.636580E-05  1.666541E+00
       132  3.636580E-05  3.636580E-05 -7.550655E-16
       133  3.636580E-05 -4.772281E-17  1.666541E+00
       134 -9.091450E-06 -9.091450E-06 -4.166353E-01
       219 -3.636580E-05  3.636580E-05  5.701591E-17
       220 -3.636580E-05  3.302243E-16  1.666541E+00
       222  9.091450E-06 -9.091450E-06 -4.166353E-01
       223  7.414052E-16  3.636580E-05  1.666541E+00

 stresses (elem, integ.pnt.,sxx,syy,szz,sxy,sxz,syz) for set EALL and time  0.1000000E+00

         1   1  2.181835E-04  2.181835E-04  1.999958E+01  2.829633E-16  3.698103E-15 -3.464572E-15
         1   2  2.181835E-04  2.181835E-04  1.999958E+01 -1.148498E-15  2.133101E-15 -3.797235E-15
         1   3  2.181835E-04  2.181835E-04  1.999958E+01  4.460833E-15  2.666004E-15 -4.346473E-15
         1   4  2.181835E-04  2.181835E-04  1.999958E+01 -5.992164E-16  3.198788E-15 -3.197999E-15
         1   5  2.181835E-04  2.181835E-04  1.999958E+01 -2.663184E-16  1.733706E-15 -2.798141E-15
         1   6  2.181835E-04  2.181835E-04  1.999958E+01  2.346931E-15 -4.307147E-16 -4.096665E-15
         1   7  2.181835E-04  2.181835E-04  1.999958E+01 -2.396866E-15  1.334163E-15 -1.066762E-15
         1   8  2.181835E-04  2.181835E-04  1.999958E+01  9.986941E-16  8.014917E-16 -2.931230E-15
         1   9  2.181835E-04  2.181835E-04  1.999958E+01  8.821797E-16 -9.300840E-16 -4.129779E-15
         1  10  2.181835E-04  2.181835E-04  1.999958E+01 -9.986941E-17  6.548709E-15  4.994676E-16
         1  11  2.181835E-04  2.181835E-04  1.999958E+01  1.331592E-16  2.394970E-15  2.725256E-15
         1  12  2.181835E-04  2.181835E-04  1.999958E+01  8.322450E-16  4.224832E-15  1.939124E-15
         1  13  2.181835E-04  2.181835E-04  1.999958E+01 -1.331592E-16  5.735090E-15  8.623760E-16
         1  14  2.181835E-04  2.181835E-04  1.999958E+01  1.597910E-15 -7.909602E-16 -3.299640E-15
         1  15  2.181835E-04  2.181835E-04  1.999958E+01  1.930809E-15  1.789615E-15 -3.769277E-15
         1  16  2.181835E-04  2.181835E-04  1.999958E+01 -1.488278E-32  1.014082E-15  7.592168E-16
         1  17  2.181835E-04  2.181835E-04  1.999958E+01  1.331592E-15 -4.409597E-15 -9.071204E-15
         1  18  2.181835E-04  2.181835E-04  1.999958E+01 -1.131853E-15 -1.659994E-15 -9.703806E-15
         1  19  2.181835E-04  2.181835E-04  1.999958E+01 -1.847584E-15  9.137663E-15  7.586304E-15
         1  20  2.181835E-04  2.181835E-04  1.999958E+01  1.481396E-15  7.470764E-16 -3.601329E-15
         1  21  2.181835E-04  2.181835E-04  1.999958E+01 -4.327674E-16 -1.119017E-14  1.351330E-14
         1  22  2.181835E-04  2.181835E-04  1.999958E+01 -7.989552E-16  5.874253E-15 -7.197372E-15
         1  23  2.181835E-04  2.181835E-04  1.999958E+01  5.326368E-16  4.276122E-15 -3.201707E-15
         1  24  2.181835E-04  2.181835E-04  1.999958E+01  1.148498E-15 -2.749338E-15 -1.603649E-15
         1  25  2.181835E-04  2.181835E-04  1.999958E+01 -1.464751E-15  1.386562E-14 -1.652030E-14
         1  26  2.181835E-04  2.181835E-04  1.999958E+01 -2.130547E-15  2.944089E-15 -1.492229E-14
         1  27  2.181835E-04  2.181835E-04  1.999958E+01 -2.629894E-15  1.812221E-15 -1.132655E-14

 displacements (vx,vy,vz) for set NALL and time  0.2000000E+00

         2  0.000000E+00  0.000000E+00  0.000000E+00
        10  2.161428E-05  0.000000E+00  0.000000E+00
        11  1.080714E-05  2.323153E-20  0.000000E+00
        12  1.198419E-20 -1.080714E-05  0.000000E+00
        13 -1.557747E-20 -2.161428E-05  0.000000E+00
        33  2.025460E-19  1.639505E-19  5.550111E-05
        34  7.155965E-19  5.160019E-19  1.110022E-04
        93  2.161428E-05 -1.080714E-05  0.000000E+00
        95  2.161428E-05 -2.161428E-05  0.000000E+00
        96  1.080714E-05 -2.161428E-05  0.000000E+00
       103  2.161428E-05  1.502482E-19  5.550111E-05
       105  2.161428E-05  4.967887E-19  1.110022E-04
       106  1.080714E-05  5.083802E-19  1.110022E-04
       132  1.585180E-19 -2.161428E-05  5.550111E-05
       133  6.846426E-19 -1.080714E-05  1.110022E-04
       134  6.431559E-19 -2.161428E-05  1.110022E-04
       219  2.161428E-05 -2.161428E-05  5.550111E-05
       220  2.161428E-05 -1.080714E-05  1.110022E-04
       222  2.161428E-05 -2.161428E-05  1.110022E-04
       223  1.080714E-05 -2.161428E-05  1.110022E-04

 forces (fx,fy,fz) for set NALL and time  0.2000000E+00

         2 -8.162304E-06  8.162304E-06  4.166228E-01
        10  8.162304E-06  8.162304E-06  4.166228E-01
        11 -2.753847E-16 -3.264922E-05 -1.666491E+00
        12  3.264922E-05 -9.436445E-16 -1.666491E+00
        13 -8.162304E-06 -8.162304E-06  4.166228E-01
        33  3.264922E-05 -3.264922E-05 -3.734738E-17
        34 -8.162304E-06  8.162304E-06 -4.166228E-01
        93 -3.264922E-05 -7.241078E-16 -1.666491E+00
        95  8.162304E-06 -8.162304E-06  4.166228E-01
        96 -1.711118E-17  3.264922E-05 -1.666491E+00
       103 -3.264922E-05 -3.264922E-05  6.864492E-16
       105  8.162304E-06  8.162304E-06 -4.166228E-01
       106 -2.968948E-16 -3.264922E-05  1.666491E+00
       132  3.264922E-05  3.264922E-05  2.278857E-17
       133  3.264922E-05 -1.489898E-15  1.666491E+00
       134 -8.162304E-06 -8.162304E-06 -4.166228E-01
       219 -3.264922E-05  3.264922E-05 -1.969360E-16
       220 -3.264922E-05 -1.816806E-15  1.666491E+00
       222  8.162304E-06 -8.162304E-06 -4.166228E-01
       223  3.971134E-16  3.264922E-05  1.666491E+00

 stresses (elem, integ.pnt.,sxx,syy,szz,sxy,sxz,syz) for set EALL and time  0.2000000E+00

         1   1  1.958820E-04  1.958820E-04  1.999963E+01  5.785843E-15  1.005814E-15  8.899738E-15
         1   2  1.958820E-04  1.958820E-04  1.999963E+01 -1.464492E-15  3.294574E-15  3.896952E-15
         1   3  1.958820E-04  1.958820E-04  1.999963E+01  5.815846E-16  3.418684E-15  6.069161E-15
         1   4  1.958820E-04  1.958820E-04  1.999963E+01  1.690785E-15  3.592312E-15  7.334081E-15
         1   5  1.958820E-04  1.958820E-04  1.999963E+01  1.004311E-16  2.546295E-15  5.585002E-15
         1   6  1.958820E-04  1.958820E-04  1.999963E+01  4.133100E-16  1.297735E-15  5.308788E-15
         1   7  1.958820E-04  1.958820E-04  1.999963E+01 -4.156390E-15  4.828443E-15  7.862521E-15
         1   8  1.958820E-04  1.958820E-04  1.999963E+01  9.550335E-16  3.963730E-15  3.503720E-15
         1   9  1.958820E-04  1.958820E-04  1.999963E+01  1.232011E-15  6.869589E-16  4.688409E-15
         1  10  1.958820E-04  1.958820E-04  1.999963E+01 -1.693483E-15  1.481395E-15  2.988759E-16
         1  11  1.958820E-04  1.958820E-04  1.999963E+01 -3.165455E-16  1.846492E-15 -9.691744E-16
         1  12  1.958820E-04  1.958820E-04  1.999963E+01 -3.043730E-15  1.455643E-15 -4.599687E-15
         1  13  1.958820E-04  1.958820E-04  1.999963E+01 -2.161145E-16  5.839881E-15  3.139941E-15
         1  14  1.958820E-04  1.958820E-04  1.999963E+01  7.290636E-16 -1.289611E-15 -4.855200E-16
         1  15  1.958820E-04  1.958820E-04  1.999963E+01 -2.620477E-16 -5.259889E-15 -2.192681E-15
         1  16  1.958820E-04  1.958820E-04  1.999963E+01  3.157570E-32  1.931592E-15  4.957962E-15
         1  17  1.958820E-04  1.958820E-04  1.999963E+01  1.095825E-15 -2.660602E-16  4.547173E-16
         1  18  1.958820E-04  1.958820E-04  1.999963E+01 -2.569380E-15 -2.187816E-15  9.922035E-15
         1  19  1.958820E-04  1.958820E-04  1.999963E+01 -6.349095E-16  1.968316E-14  6.466204E-15
         1  20  1.958820E-04  1.958820E-04  1.999963E+01  1.904905E-15  2.833652E-15  4.358051E-15
         1  21  1.958820E-04  1.958820E-04  1.999963E+01 -1.501362E-15  5.994912E-15  2.882346E-15
         1  22  1.958820E-04  1.958820E-04  1.999963E+01  1.899273E-15  4.196424E-15  7.512745E-15
         1  23  1.958820E-04  1.958820E-04  1.999963E+01  1.530283E-15  1.602333E-15  3.874333E-15
         1  24  1.958820E-04  1.958820E-04  1.999963E+01  7.986673E-16 -6.804069E-15  5.702412E-15
         1  25  1.958820E-04  1.958820E-04  1.999963E+01 -7.792791E-16  2.356179E-14  1.742259E-14
         1  26  1.958820E-04  1.958820E-04  1.999963E+01 -1.060861E-15  3.170252E-15  1.308982E-14
         1  27  1.958820E-04  1.958820E-04  1.999963E+01  4.258055E-16  5.129173E-15  1.759434E-14

 displacements (vx,vy,vz) for set NALL and time  0.3500000E+00

         2  0.000000E+00  0.000000E+00  0.000000E+00
        10  3.359709E-05  0.000000E+00  0.000000E+00
        11  1.679855E-05  4.428505E-22  0.000000E+00
        12 -3.656549E-20 -1.679855E-05  0.000000E+00
        13 -1.459683E-19 -3.359709E-05  0.000000E+00
        33  3.237518E-19  1.095967E-20  7.946099E-05
        34  1.197277E-18  8.269583E-20  1.589220E-04
        93  3.359709E-05 -1.679855E-05  0.000000E+00
        95  3.359709E-05 -3.359709E-05  0.000000E+00
        96  1.679855E-05 -3.359709E-05  0.000000E+00
       103  3.359709E-05 -2.592310E-20  7.946099E-05
       105  3.359709E-05  5.634175E-21  1.589220E-04
       106  1.679855E-05  3.241236E-20  1.589220E-04
       132  1.746103E-19 -3.359709E-05  7.946099E-05
       133  1.111837E-18 -1.679855E-05  1.589220E-04
       134  1.040642E-18 -3.359709E-05  1.589220E-04
       219  3.359709E-05 -3.359709E-05  7.946099E-05
       220  3.359709E-05 -1.679855E-05  1.589220E-04
       222  3.359709E-05 -3.359709E-05  1.589220E-04
       223  1.679855E-05 -3.359709E-05  1.589220E-04

 forces (fx,fy,fz) for set NALL and time  0.3500000E+00

         2  1.222184E-12 -1.221061E-12  4.166107E-01
        10 -1.220405E-12 -1.220223E-12  4.166107E-01
        11 -2.086894E-15  4.886298E-12 -1.666443E+00
        12 -4.886467E-12 -1.121610E-15 -1.666443E+00
        13  1.222583E-12  1.222578E-12  4.166107E-01
        33 -4.887269E-12  4.886419E-12 -2.993338E-16
        34  1.222186E-12 -1.221445E-12 -4.166107E-01
        93  4.886507E-12 -2.522906E-15 -1.666443E+00
        95 -1.221472E-12  1.222903E-12  4.166107E-01
        96 -1.072533E-15 -4.886340E-12 -1.666443E+00
       103  4.886789E-12  4.886708E-12 -1.361646E-15
       105 -1.221543E-12 -1.221203E-12 -4.166107E-01
       106 -4.213960E-16  4.886629E-12  1.666443E+00
       132 -4.886106E-12 -4.886150E-12  9.619652E-16
       133 -4.886824E-12 -1.196644E-16  1.666443E+00
       134  1.221437E-12  1.221610E-12 -4.166107E-01
       219  4.886171E-12 -4.887010E-12  1.088442E-15
       220  4.887156E-12 -1.011958E-15  1.666443E+00
       222 -1.221452E-12  1.222312E-12 -4.166107E-01
       223  1.057664E-16 -4.887249E-12  1.666443E+00

 stresses (elem, integ.pnt.,sxx,syy,szz,sxy,sxz,syz) for set EALL and time  0.3500000E+00

         1   1 -2.935141E-11 -2.934608E-11  2.000000E+01 -4.126986E-16  6.969031E-16 -5.759870E-15
         1   2 -2.930434E-11 -2.930434E-11  2.000000E+01  1.081170E-15  2.093213E-15 -3.394180E-15
         1   3 -2.933631E-11 -2.932921E-11  2.000000E+01  4.618740E-15  4.309421E-15 -5.926477E-15
         1   4 -2.934519E-11 -2.933809E-11  2.000000E+01  3.127280E-15  2.781840E-15 -4.450800E-15
         1   5 -2.931766E-11 -2.931500E-11  2.000000E+01  1.173144E-15  3.802906E-15 -5.143481E-15
         1   6 -2.930168E-11 -2.930168E-11  2.000000E+01  2.877815E-15  6.819539E-16 -4.587635E-15
         1   7 -2.927681E-11 -2.927504E-11  2.000000E+01 -1.282288E-15  4.775264E-15 -4.397815E-15
         1   8 -2.930612E-11 -2.930612E-11  2.000000E+01 -5.964522E-17  2.528296E-15 -1.077976E-15
         1   9 -2.929813E-11 -2.929813E-11  2.000000E+01 -3.724151E-15  2.884264E-15 -4.772753E-15
         1  10 -2.934164E-11 -2.933720E-11  2.000000E+01  9.051041E-16 -1.099366E-15 -1.042423E-15
         1  11 -2.932477E-11 -2.932743E-11  2.000000E+01  8.425197E-16  3.281808E-15  3.594637E-15
         1  12 -2.931944E-11 -2.931500E-11  2.000000E+01 -9.792007E-16  8.714589E-15 -1.268049E-15
         1  13 -2.929813E-11 -2.930523E-11  2.000000E+01 -3.373819E-16 -2.537773E-15 -1.473050E-16
         1  14 -2.932033E-11 -2.931855E-11  2.000000E+01  1.950847E-15  4.504726E-16  6.422979E-16
         1  15 -2.931233E-11 -2.930967E-11  2.000000E+01  3.168094E-15 -2.583873E-15 -4.742795E-15
         1  16 -2.933187E-11 -2.932477E-11  2.000000E+01 -1.792797E-15  1.983086E-15  1.332458E-15
         1  17 -2.932477E-11 -2.931766E-11  2.000000E+01  1.470800E-15 -2.329833E-15  6.342892E-15
         1  18 -2.929280E-11 -2.929813E-11  2.000000E+01  2.218828E-16 -1.286832E-14  2.012645E-15
         1  19 -2.932388E-11 -2.932921E-11  2.000000E+01 -1.089130E-15  8.567296E-16 -4.680710E-15
         1  20 -2.929457E-11 -2.929724E-11  2.000000E+01  1.446705E-15  7.072397E-15 -7.187293E-15
         1  21 -2.930878E-11 -2.932122E-11  2.000000E+01 -1.991519E-15 -3.016907E-16 -3.406492E-15
         1  22 -2.931855E-11 -2.932033E-11  2.000000E+01 -9.092757E-16  1.162605E-14 -3.235268E-15
         1  23 -2.932477E-11 -2.932299E-11  2.000000E+01  4.659933E-16  6.678841E-15 -8.829433E-16
         1  24 -2.933187E-11 -2.933454E-11  2.000000E+01  2.883734E-15 -1.371704E-15 -5.893993E-15
         1  25 -2.929813E-11 -2.929813E-11  2.000000E+01 -1.843734E-16  1.684664E-14 -1.014655E-14
         1  26 -2.933542E-11 -2.933542E-11  2.000000E+01 -2.012716E-15  1.671589E-15  1.930620E-15
         1  27 -2.931233E-11 -2.931855E-11  2.000000E+01  3.220552E-15 -4.531588E-15 -1.016895E-14

 displacements (vx,vy,vz) for set NALL and time  0.5750000E+00

         2  0.000000E+00  0.000000E+00  0.000000E+00
        10  5.155853E-05  0.000000E+00  0.000000E+00
        11  2.577927E-05  3.446247E-20  0.000000E+00
        12 -3.161597E-20 -2.577927E-05  0.000000E+00
        13 -1.226698E-19 -5.155853E-05  0.000000E+00
        33  3.070904E-19  1.273246E-19  1.153720E-04
        34  1.206726E-18  2.612318E-19  2.307441E-04
        93  5.155853E-05 -2.577927E-05  0.000000E+00
        95  5.155853E-05 -5.155853E-05  0.000000E+00
        96  2.577927E-05 -5.155853E-05  0.000000E+00
       103  5.155853E-05  6.956939E-20  1.153720E-04
       105  5.155853E-05  2.184652E-19  2.307441E-04
       106  2.577927E-05  2.015481E-19  2.307441E-04
       132  1.337417E-19 -5.155853E-05  1.153720E-04
       133  1.101692E-18 -2.577927E-05  2.307441E-04
       134  9.807655E-19 -5.155853E-05  2.307441E-04
       219  5.155853E-05 -5.155853E-05  1.153720E-04
       220  5.155853E-05 -2.577927E-05  2.307441E-04
       222  5.155853E-05 -5.155853E-05  2.307441E-04
       223  2.577927E-05 -5.155853E-05  2.307441E-04

 forces (fx,fy,fz) for set NALL and time  0.5750000E+00

         2 -1.349296E-12  1.349530E-12  4.165807E-01
        10  1.350350E-12  1.349327E-12  4.165807E-01
        11 -1.065907E-15 -5.397731E-12 -1.666323E+00
        12  5.398609E-12 -1.261606E-15 -1.666323E+00
        13 -1.348742E-12 -1.348678E-12  4.165807E-01
        33  5.398416E-12 -5.398967E-12  9.359003E-16
        34 -1.350385E-12  1.350816E-12 -4.165807E-01
        93 -5.398462E-12  5.336081E-16 -1.666323E+00
        95  1.351467E-12 -1.350224E-12  4.165807E-01
        96 -2.843293E-15  5.398076E-12 -1.666323E+00
       103 -5.398331E-12 -5.398076E-12 -1.031754E-15
       105  1.349314E-12  1.349244E-12 -4.165807E-01
       106  1.117231E-15 -5.398467E-12  1.666323E+00
       132  5.399311E-12  5.399179E-12 -5.066816E-16
       133  5.398969E-12 -2.109275E-15  1.666323E+00
       134 -1.349337E-12 -1.348860E-12 -4.165807E-01
       219 -5.398989E-12  5.398719E-12 -1.312288E-15
       220 -5.399102E-12  2.505360E-16  1.666323E+00
       222  1.350402E-12 -1.349872E-12 -4.165807E-01
       223 -1.402483E-15  5.398570E-12  1.666323E+00

 stresses (elem, integ.pnt.,sxx,syy,szz,sxy,sxz,syz) for set EALL and time  0.5750000E+00

         1   1  3.238439E-11  3.239416E-11  2.000000E+01  7.837667E-15 -1.108649E-16  2.995466E-15
         1   2  3.239150E-11  3.238706E-11  2.000000E+01 -5.721182E-15 -2.735292E-15  1.461060E-15
         1   3  3.237551E-11  3.239416E-11  2.000000E+01 -3.747541E-15 -3.123668E-16  6.911482E-15
         1   4  3.233467E-11  3.233911E-11  2.000000E+01  1.415135E-15  1.905436E-15  5.724550E-15
         1   5  3.239860E-11  3.239860E-11  2.000000E+01 -7.706135E-16 -1.467093E-15  5.249957E-15
         1   6  3.240038E-11  3.240571E-11  2.000000E+01  2.682789E-16 -6.605905E-16  5.259018E-15
         1   7  3.241103E-11  3.241103E-11  2.000000E+01 -6.880666E-15 -1.960943E-15  7.921520E-15
         1   8  3.233733E-11  3.233733E-11  2.000000E+01 -1.158187E-16 -2.188283E-15  2.080119E-15
         1   9  3.239505E-11  3.240926E-11  2.000000E+01  2.293017E-15 -2.671687E-15 -6.631926E-16
         1  10  3.236663E-11  3.237640E-11  2.000000E+01 -9.746681E-16  7.678383E-15 -1.962687E-15
         1  11  3.237196E-11  3.237196E-11  2.000000E+01 -2.768952E-16  1.794230E-15 -4.918140E-15
         1  12  3.235776E-11  3.235776E-11  2.000000E+01 -1.772791E-15  3.477547E-16 -2.106394E-15
         1  13  3.241192E-11  3.241192E-11  2.000000E+01 -2.315789E-15  3.098806E-15  1.931430E-15
         1  14  3.239416E-11  3.239416E-11  2.000000E+01  1.019940E-16  5.597330E-16 -3.532390E-15
         1  15  3.241547E-11  3.240659E-11  2.000000E+01 -1.283694E-15  6.330875E-16 -2.843002E-15
         1  16  3.235598E-11  3.236930E-11  2.000000E+01  2.137818E-15 -1.652712E-15 -5.613898E-15
         1  17  3.237374E-11  3.237818E-11  2.000000E+01 -8.256348E-16 -3.552055E-15  4.283134E-16
         1  18  3.243590E-11  3.243146E-11  2.000000E+01 -5.021327E-15 -3.031653E-15 -7.749294E-15
         1  19  3.239416E-11  3.238439E-11  2.000000E+01 -2.204133E-15  1.287711E-14  4.903487E-15
         1  20  3.241192E-11  3.241192E-11  2.000000E+01  3.238317E-15  2.011526E-15 -1.355356E-14
         1  21  3.237818E-11  3.237374E-11  2.000000E+01  2.302641E-15  1.344312E-15  1.346137E-14
         1  22  3.241192E-11  3.239327E-11  2.000000E+01  1.153982E-15 -3.760126E-15  5.515677E-15
         1  23  3.236663E-11  3.236663E-11  2.000000E+01  5.595079E-16 -2.594722E-15  1.620096E-15
         1  24  3.236841E-11  3.236841E-11  2.000000E+01  2.013632E-15 -6.957058E-15 -3.218928E-16
         1  25  3.240304E-11  3.239327E-11  2.000000E+01  5.354149E-15  7.149895E-15 -7.197137E-15
         1  26  3.238439E-11  3.238439E-11  2.000000E+01  3.244938E-16 -1.232657E-14  4.443046E-15
         1  27  3.241192E-11  3.241192E-11  2.000000E+01  3.229593E-16 -2.029969E-14 -6.753712E-15

 displacements (vx,vy,vz) for set NALL and time  0.9125000E+00

         2  0.000000E+00  0.000000E+00  0.000000E+00
        10  7.847291E-05  0.000000E+00  0.000000E+00
        11  3.923646E-05  2.143487E-20  0.000000E+00
        12 -1.301771E-19 -3.923646E-05  0.000000E+00
        13 -2.781665E-19 -7.847291E-05  0.000000E+00
        33  2.813271E-19 -1.751321E-20  1.691759E-04
        34  1.232170E-18 -2.993742E-19  3.383517E-04
        93  7.847291E-05 -3.923646E-05  0.000000E+00
        95  7.847291E-05 -7.847291E-05  0.000000E+00
        96  3.923646E-05 -7.847291E-05  0.000000E+00
       103  7.847291E-05 -1.317412E-19  1.691759E-04
       105  7.847291E-05 -3.085802E-19  3.383517E-04
       106  3.923646E-05 -3.812437E-19  3.383517E-04
       132 -2.802641E-20 -7.847291E-05  1.691759E-04
       133  1.070018E-18 -3.923646E-05  3.383517E-04
       134  9.032688E-19 -7.847291E-05  3.383517E-04
       219  7.847291E-05 -7.847291E-05  1.691759E-04
       220  7.847291E-05 -3.923646E-05  3.383517E-04
       222  7.847291E-05 -7.847291E-05  3.383517E-04
       223  3.923646E-05 -7.847291E-05  3.383517E-04

 forces (fx,fy,fz) for set NALL and time  0.9125000E+00

         2 -2.697507E-13  2.680780E-13  4.165359E-01
        10  2.686574E-13  2.687919E-13  4.165359E-01
        11  8.819150E-16 -1.078915E-12 -1.666144E+00
        12  1.079095E-12  3.147545E-15 -1.666144E+00
        13 -2.715705E-13 -2.712190E-13  4.165359E-01
        33  1.080353E-12 -1.079121E-12 -6.631268E-16
        34 -2.695956E-13  2.680407E-13 -4.165359E-01
        93 -1.079055E-12  1.374969E-15 -1.666144E+00
        95  2.677824E-13 -2.697974E-13  4.165359E-01
        96  3.613035E-15  1.079313E-12 -1.666144E+00
       103 -1.080065E-12 -1.079888E-12 -1.177693E-17
       105  2.701480E-13  2.693696E-13 -4.165359E-01
       106 -3.600258E-16 -1.079894E-12  1.666144E+00
       132  1.079148E-12  1.079539E-12  2.337946E-16
       133  1.078907E-12  3.096293E-15  1.666144E+00
       134 -2.712668E-13 -2.713735E-13 -4.165359E-01
       219 -1.078344E-12  1.079870E-12  1.348629E-16
       220 -1.079388E-12  1.951485E-15  1.666144E+00
       222  2.693489E-13 -2.713867E-13 -4.165359E-01
       223  1.460523E-15  1.079022E-12  1.666144E+00

 stresses (elem, integ.pnt.,sxx,syy,szz,sxy,sxz,syz) for set EALL and time  0.9125000E+00

         1   1  6.507258E-12  6.489500E-12  2.000000E+01  9.890687E-15 -3.131737E-15 -9.570423E-15
         1   2  6.510809E-12  6.501931E-12  2.000000E+01 -6.522638E-15 -1.532150E-15 -6.908312E-15
         1   3  6.507258E-12  6.507258E-12  2.000000E+01 -3.799320E-15 -3.126821E-15 -1.154886E-15
         1   4  6.439779E-12  6.449546E-12  2.000000E+01 -1.222012E-15 -7.780835E-16 -5.997295E-15
         1   5  6.480622E-12  6.480622E-12  2.000000E+01  5.902177E-16 -1.043828E-15 -4.182817E-15
         1   6  6.444219E-12  6.462864E-12  2.000000E+01  3.006115E-15 -2.045576E-15  1.838717E-16
         1   7  6.564082E-12  6.555203E-12  2.000000E+01 -1.126331E-14  1.046005E-15 -1.332598E-15
         1   8  6.448658E-12  6.458425E-12  2.000000E+01  5.868064E-15 -2.970426E-15 -7.220391E-16
         1   9  6.448658E-12  6.458425E-12  2.000000E+01  2.090285E-15 -1.862815E-15  1.682539E-15
         1  10  6.480622E-12  6.498379E-12  2.000000E+01  1.929347E-15  1.071514E-14 -1.566661E-14
         1  11  6.453985E-12  6.453985E-12  2.000000E+01  4.952270E-17  1.324683E-15 -6.000369E-15
         1  12  6.510809E-12  6.501931E-12  2.000000E+01 -1.145642E-15  4.042820E-15 -5.984894E-15
         1  13  6.525015E-12  6.525015E-12  2.000000E+01  1.769415E-15  1.228835E-14 -6.119014E-15
         1  14  6.480622E-12  6.480622E-12  2.000000E+01  1.720977E-15  3.323105E-16 -1.231314E-15
         1  15  6.448658E-12  6.458425E-12  2.000000E+01  4.218213E-15  4.607247E-18 -1.624566E-15
         1  16  6.444219E-12  6.444219E-12  2.000000E+01 -1.546676E-15  6.721151E-15 -2.659411E-15
         1  17  6.444219E-12  6.444219E-12  2.000000E+01  9.591307E-18  1.419521E-15 -3.950810E-15
         1  18  6.493052E-12  6.502819E-12  2.000000E+01 -5.971347E-16 -1.723188E-15  1.039529E-14
         1  19  6.404264E-12  6.413143E-12  2.000000E+01 -7.264031E-15 -2.153261E-15  3.497207E-16
         1  20  6.510809E-12  6.519688E-12  2.000000E+01 -4.419077E-15  4.202015E-17 -1.733892E-14
         1  21  6.528567E-12  6.539222E-12  2.000000E+01  7.223878E-16 -8.676407E-15 -4.329247E-15
         1  22  6.485061E-12  6.457537E-12  2.000000E+01 -3.557832E-15 -3.758007E-15 -8.880453E-15
         1  23  6.502819E-12  6.493052E-12  2.000000E+01 -2.206569E-15 -5.345176E-15 -6.784231E-15
         1  24  6.396273E-12  6.405152E-12  2.000000E+01 -4.076774E-17 -1.649384E-14 -6.578789E-15
         1  25  6.480622E-12  6.461976E-12  2.000000E+01  6.542557E-15  1.805002E-15 -7.434799E-15
         1  26  6.422022E-12  6.430900E-12  2.000000E+01 -2.846278E-15 -1.192700E-14  1.019228E-14
         1  27  6.507258E-12  6.507258E-12  2.000000E+01 -2.108605E-15 -1.314336E-14 -1.728234E-15

 displacements (vx,vy,vz) for set NALL and time  0.1000000E+01

         2  0.000000E+00  0.000000E+00  0.000000E+00
        10  8.544901E-05  0.000000E+00  0.000000E+00
        11  4.272450E-05 -1.196512E-21  0.000000E+00
        12 -1.788100E-19 -4.272450E-05  0.000000E+00
        13 -3.531598E-19 -8.544901E-05  0.000000E+00
        33  3.175315E-19  5.909689E-20  1.831202E-04
        34  1.458052E-18 -1.327829E-19  3.662403E-04
        93  8.544901E-05 -4.272450E-05  0.000000E+00
        95  8.544901E-05 -8.544901E-05  0.000000E+00
        96  4.272450E-05 -8.544901E-05  0.000000E+00
       103  8.544901E-05 -1.237504E-19  1.831202E-04
       105  8.544901E-05 -2.264554E-19  3.662403E-04
       106  4.272450E-05 -2.374985E-19  3.662403E-04
       132 -7.168558E-20 -8.544901E-05  1.831202E-04
       133  1.236458E-18 -4.272450E-05  3.662403E-04
       134  9.598340E-19 -8.544901E-05  3.662403E-04
       219  8.544901E-05 -8.544901E-05  1.831202E-04
       220  8.544901E-05 -4.272450E-05  3.662403E-04
       222  8.544901E-05 -8.544901E-05  3.662403E-04
       223  4.272450E-05 -8.544901E-05  3.662403E-04

 forces (fx,fy,fz) for set NALL and time  0.1000000E+01

         2 -3.486199E-15  3.358467E-15  4.165243E-01
        10  7.919558E-15  6.724186E-15  4.165243E-01
        11 -4.651085E-15 -2.164525E-14 -1.666097E+00
        12  2.351065E-14  3.567731E-15 -1.666097E+00
        13 -6.873580E-15 -7.533519E-15  4.165243E-01
        33  2.316450E-14 -2.138395E-14  1.201991E-15
        34 -4.386308E-15  5.254436E-15 -4.165243E-01
        93 -2.360394E-14 -1.150129E-15 -1.666097E+00
        95  5.487548E-15 -5.638319E-15  4.165243E-01
        96  1.723346E-15  2.246989E-14 -1.666097E+00
       103 -2.284435E-14 -2.213563E-14  4.707674E-16
       105  7.578247E-15  7.274713E-15 -4.165243E-01
       106 -3.105265E-15 -2.294337E-14  1.666097E+00
       132  2.204849E-14  2.287611E-14 -2.444347E-15
       133  2.369889E-14 -7.163957E-16  1.666097E+00
       134 -5.013468E-15 -5.270076E-15 -4.165243E-01
       219 -2.241064E-14  2.293746E-14 -1.337709E-15
       220 -2.345649E-14 -1.836844E-15  1.666097E+00
       222  5.954996E-15 -5.495317E-15 -4.165243E-01
       223 -1.254894E-15  2.128580E-14  1.666097E+00

 stresses (elem, integ.pnt.,sxx,syy,szz,sxy,sxz,syz) for set EALL and time  0.1000000E+01

         1   1  7.635538E-14  5.859831E-14  2.000000E+01 -9.605879E-15  5.925343E-15 -1.505205E-15
         1   2  1.820099E-13  1.642529E-13  2.000000E+01  3.841025E-15 -3.241068E-15  1.774696E-15
         1   3  1.926642E-13  1.740192E-13  2.000000E+01 -2.765013E-15  2.012736E-15  9.001605E-15
         1   4  9.411244E-14  7.635538E-14  2.000000E+01  3.114693E-15  1.180237E-14  5.524694E-16
         1   5  1.349537E-13  1.260752E-13  2.000000E+01  2.063597E-15 -2.362894E-15  3.977587E-15
         1   6  1.704678E-13  1.429444E-13  2.000000E+01 -4.953180E-15 -4.977036E-15  2.777446E-15
         1   7  2.272904E-13  1.908884E-13  2.000000E+01  3.256098E-15 -2.673078E-15 -5.350760E-15
         1   8  9.500030E-14  9.500030E-14  2.000000E+01  4.397882E-15 -5.302008E-15  6.434755E-16
         1   9  9.056103E-14  8.168250E-14  2.000000E+01 -5.971631E-15 -5.416967E-15  3.476469E-15
         1  10  1.242995E-13  1.340658E-13  2.000000E+01 -7.125321E-15 -7.328342E-15  3.723669E-15
         1  11  1.083181E-13  8.079465E-14  2.000000E+01  1.989468E-15  4.831791E-15  1.394255E-15
         1  12  1.571500E-13  1.385051E-13  2.000000E+01  4.562653E-15  3.257131E-14  2.510480E-14
         1  13  1.828978E-13  1.828978E-13  2.000000E+01 -6.670761E-15  1.322587E-15 -1.209432E-15
         1  14  1.518229E-13  1.615893E-13  2.000000E+01  3.362442E-15  1.335393E-15 -1.060657E-14
         1  15  1.260752E-13  1.349537E-13  2.000000E+01 -1.154729E-15 -9.094358E-15 -8.260779E-15
         1  16  1.029910E-13  1.029910E-13  2.000000E+01 -1.011805E-15 -5.990977E-15 -3.587581E-14
         1  17  1.171966E-13  1.074302E-13  2.000000E+01 -2.230397E-15 -1.311333E-14 -1.968719E-14
         1  18  1.438322E-13  1.349537E-13  2.000000E+01 -1.229294E-15  1.200187E-14 -1.793307E-14
         1  19  6.747685E-14  6.747685E-14  2.000000E+01 -7.547700E-15  7.266253E-15  3.492748E-14
         1  20  1.651407E-13  1.651407E-13  2.000000E+01  9.533434E-16  6.182650E-15  1.313693E-14
         1  21  1.784585E-13  1.695800E-13  2.000000E+01 -8.659918E-17 -2.236787E-14 -4.685119E-14
         1  22  1.260752E-13  1.163088E-13  2.000000E+01  3.823356E-15 -3.579163E-15  7.614557E-15
         1  23  1.482715E-13  1.296266E-13  2.000000E+01 -8.843350E-16 -4.618521E-15 -1.228401E-14
         1  24  1.225237E-13  1.038788E-13  2.000000E+01  1.650764E-15  1.173719E-14 -4.873711E-15
         1  25  1.207480E-13  1.393930E-13  2.000000E+01 -8.580865E-15 -2.904589E-14 -4.517739E-14
         1  26  1.473836E-13  1.473836E-13  2.000000E+01  1.493058E-15 -6.683940E-15 -2.804624E-14
         1  27  1.607014E-13  1.882249E-13  2.000000E+01 -4.664499E-15  3.730134E-14 -5.200953E-15
