
 stresses (elem, integ.pnt.,sxx,syy,szz,sxy,sxz,syz) for set E1 and time  0.1000000E-01

        32   1 -9.503509E-14 -1.092459E-13  2.625000E+01  1.094627E-14 -2.456070E-14 -6.335155E-14
        32   2  8.881784E-16 -2.220446E-14  2.625000E+01  6.430935E-15 -6.896151E-14 -7.121918E-14
        32   3 -1.136868E-13 -1.003642E-13  2.625000E+01  1.395650E-14  3.502807E-14 -9.304331E-15
        32   4 -1.776357E-14  2.664535E-15  2.625000E+01 -1.299870E-15  5.459453E-14 -1.204090E-14
        32   5 -7.016610E-14 -8.792966E-14  2.625000E+01 -1.272504E-14  3.749098E-14  1.747299E-13
        32   6 -4.707346E-14 -8.792966E-14  2.625000E+01 -4.446923E-15  7.631604E-14  2.846031E-14
        32   7  4.263256E-14  4.352074E-14  2.625000E+01  7.115077E-15  1.559844E-14 -2.189254E-15
        32   8  4.618528E-14  3.197442E-14  2.625000E+01 -7.799219E-15 -2.982859E-14 -6.636177E-14

 equivalent plastic strain (elem, integ.pnt.,pe)for set E1 and time  0.1000000E-01

        32   1  0.000000E+00
        32   2  0.000000E+00
        32   3  0.000000E+00
        32   4  0.000000E+00
        32   5  0.000000E+00
        32   6  0.000000E+00
        32   7  0.000000E+00
        32   8  0.000000E+00

 stresses (elem, integ.pnt.,sxx,syy,szz,sxy,sxz,syz) for set E1 and time  0.2000000E-01

        32   1  9.059420E-14  1.012523E-13  5.250000E+01 -8.209704E-15  2.545008E-14  1.598156E-13
        32   2  3.552714E-14 -5.151435E-14  5.250000E+01  5.062651E-15 -3.557538E-15 -3.010225E-14
        32   3  7.638334E-14  1.083578E-13  5.250000E+01 -2.681837E-14  1.247875E-13 -6.896151E-14
        32   4 -6.217249E-14 -1.101341E-13  5.250000E+01 -1.806135E-14  6.280424E-14  1.915598E-15
        32   5 -1.296740E-13 -2.007283E-13  5.250000E+01 -3.064956E-14  7.251905E-14  2.328819E-13
        32   6 -4.618528E-14 -7.283063E-14  5.250000E+01  7.115077E-15  1.408648E-13  5.568916E-14
        32   7 -9.947598E-14  7.105427E-15  5.250000E+01 -4.925822E-15  1.423015E-14  3.174419E-14
        32   8 -9.769963E-14 -8.171241E-14  5.250000E+01  2.243986E-14 -1.981275E-13 -1.559844E-14

 equivalent plastic strain (elem, integ.pnt.,pe)for set E1 and time  0.2000000E-01

        32   1  0.000000E+00
        32   2  0.000000E+00
        32   3  0.000000E+00
        32   4  0.000000E+00
        32   5  0.000000E+00
        32   6  0.000000E+00
        32   7  0.000000E+00
        32   8  0.000000E+00

 stresses (elem, integ.pnt.,sxx,syy,szz,sxy,sxz,syz) for set E1 and time  0.3500000E-01

        32   1  7.460699E-14  1.492140E-13  9.187500E+01  2.189254E-14 -2.235776E-13 -1.767823E-13
        32   2 -1.740830E-13 -1.989520E-13  9.187500E+01  3.557538E-15 -1.477747E-14 -9.441160E-14
        32   3 -2.948752E-13 -2.771117E-13  9.187500E+01  2.189254E-15 -5.801524E-14 -9.632719E-14
        32   4  2.131628E-13  1.811884E-13  9.187500E+01 -4.652166E-15  2.301454E-13  3.081376E-13
        32   5  1.776357E-14 -5.329071E-14  9.187500E+01 -2.243986E-14  1.959383E-13  4.663112E-13
        32   6  1.172396E-13  1.847411E-13  9.187500E+01 -1.121993E-14  1.039212E-13 -6.335155E-14
        32   7 -4.618528E-14 -7.105427E-14  9.187500E+01 -7.662390E-15  6.786689E-14  1.773296E-13
        32   8 -1.421085E-13 -1.456613E-13  9.187500E+01 -5.199479E-15 -3.456285E-13 -1.384703E-13

 equivalent plastic strain (elem, integ.pnt.,pe)for set E1 and time  0.3500000E-01

        32   1  0.000000E+00
        32   2  0.000000E+00
        32   3  0.000000E+00
        32   4  0.000000E+00
        32   5  0.000000E+00
        32   6  0.000000E+00
        32   7  0.000000E+00
        32   8  0.000000E+00

 stresses (elem, integ.pnt.,sxx,syy,szz,sxy,sxz,syz) for set E1 and time  0.5750000E-01

        32   1 -3.126388E-13 -2.629008E-13  1.509375E+02 -8.921212E-14 -2.960967E-13 -3.579431E-13
        32   2 -2.557954E-13 -1.847411E-13  1.509375E+02 -8.866480E-14  4.295043E-13  2.528589E-13
        32   3 -1.207923E-13 -3.552714E-14  1.509375E+02 -1.795189E-13  2.627105E-14  6.567763E-14
        32   4 -1.207923E-13 -1.563194E-13  1.509375E+02 -1.688462E-13  5.473136E-14  1.423015E-13
        32   5 -9.947598E-14 -3.126388E-13  1.509375E+02  2.298717E-14  2.517643E-14  6.064235E-13
        32   6  2.060574E-13  9.947598E-14  1.509375E+02  5.746793E-15  9.304331E-15  4.104852E-15
        32   7  2.344791E-13  1.350031E-13  1.509375E+02  1.236929E-13  1.269768E-13 -5.254211E-14
        32   8 -2.842171E-14 -7.105427E-15  1.509375E+02  8.291801E-14 -2.249459E-13 -3.327667E-13

 equivalent plastic strain (elem, integ.pnt.,pe)for set E1 and time  0.5750000E-01

        32   1  0.000000E+00
        32   2  0.000000E+00
        32   3  0.000000E+00
        32   4  0.000000E+00
        32   5  0.000000E+00
        32   6  0.000000E+00
        32   7  0.000000E+00
        32   8  0.000000E+00

 stresses (elem, integ.pnt.,sxx,syy,szz,sxy,sxz,syz) for set E1 and time  0.9125000E-01

        32   1  4.263256E-14 -4.263256E-14  2.395313E+02 -1.641941E-14 -2.451965E-13 -4.334724E-13
        32   2  2.913225E-13  2.202682E-13  2.395313E+02 -5.144748E-14  9.632719E-14  1.100100E-13
        32   3 -2.771117E-13  2.131628E-13  2.395313E+02 -4.597434E-14  1.182197E-13 -4.903930E-13
        32   4 -7.958079E-13 -3.979039E-13  2.395312E+02 -7.771853E-14 -4.301885E-13 -5.079070E-13
        32   5 -1.207923E-13 -2.700062E-13  2.395312E+02 -3.283882E-15  4.586488E-13  1.525910E-12
        32   6  4.618528E-13  3.268497E-13  2.395313E+02  1.094627E-14 -7.424309E-13 -7.782799E-13
        32   7 -1.705303E-13 -3.481659E-13  2.395313E+02  1.094627E-14  9.545149E-13  3.502807E-14
        32   8  1.058709E-12  7.887024E-13  2.395313E+02  7.115077E-15 -6.108020E-13  9.851645E-14

 equivalent plastic strain (elem, integ.pnt.,pe)for set E1 and time  0.9125000E-01

        32   1  0.000000E+00
        32   2  0.000000E+00
        32   3  0.000000E+00
        32   4  0.000000E+00
        32   5  0.000000E+00
        32   6  0.000000E+00
        32   7  0.000000E+00
        32   8  0.000000E+00

 stresses (elem, integ.pnt.,sxx,syy,szz,sxy,sxz,syz) for set E1 and time  0.1418750E+00

        32   1 -1.179501E-12 -1.051603E-12  3.724219E+02 -1.050842E-13 -1.303701E-12  1.123088E-12
        32   2  5.684342E-14 -3.268497E-13  3.724219E+02  1.423015E-14  3.699840E-13 -9.315277E-13
        32   3 -4.405365E-13  0.000000E+00  3.724219E+02 -7.005614E-14  3.459022E-13 -3.590377E-13
        32   4 -1.165290E-12 -1.222134E-12  3.724219E+02 -8.209704E-14 -1.321215E-12 -3.305774E-13
        32   5 -5.115908E-13 -8.384404E-13  3.724219E+02 -7.005614E-14 -3.568485E-13 -3.590377E-13
        32   6  7.247536E-13  6.252776E-13  3.724219E+02  9.523257E-14  1.532478E-13 -4.214315E-13
        32   7  4.547474E-13  5.115908E-13  3.724219E+02  8.757018E-14  7.136969E-13 -2.977386E-13
        32   8  2.842171E-13  1.421085E-13  3.724219E+02  3.721732E-14 -1.216131E-12 -7.071292E-13

 equivalent plastic strain (elem, integ.pnt.,pe)for set E1 and time  0.1418750E+00

        32   1  0.000000E+00
        32   2  0.000000E+00
        32   3  0.000000E+00
        32   4  0.000000E+00
        32   5  0.000000E+00
        32   6  0.000000E+00
        32   7  0.000000E+00
        32   8  0.000000E+00

 stresses (elem, integ.pnt.,sxx,syy,szz,sxy,sxz,syz) for set E1 and time  0.2178125E+00

        32   1 -1.307399E-12 -1.591616E-12  5.717578E+02 -7.487250E-13 -1.221604E-12 -8.319167E-13
        32   2 -3.694822E-13 -6.821210E-13  5.717578E+02 -2.769407E-13  2.465648E-12 -1.683537E-12
        32   3 -3.780087E-12 -3.382183E-12  5.717578E+02 -5.297996E-13  2.057899E-12  4.203368E-13
        32   4  5.684342E-13  5.115908E-13  5.717578E+02 -1.050842E-13 -5.998557E-13  1.344202E-12
        32   5 -7.958079E-13 -3.126388E-13  5.717578E+02  4.269046E-13 -1.403312E-12  3.415237E-12
        32   6  9.379164E-13  5.684342E-13  5.717578E+02  5.692061E-14 -4.706897E-13 -1.165778E-12
        32   7 -7.389644E-13 -1.421085E-13  5.717578E+02  1.795189E-13  2.127955E-12 -8.406737E-13
        32   8  2.842171E-14  0.000000E+00  5.717578E+02  8.975943E-14 -2.618348E-12 -7.049399E-13

 equivalent plastic strain (elem, integ.pnt.,pe)for set E1 and time  0.2178125E+00

        32   1  0.000000E+00
        32   2  0.000000E+00
        32   3  0.000000E+00
        32   4  0.000000E+00
        32   5  0.000000E+00
        32   6  0.000000E+00
        32   7  0.000000E+00
        32   8  0.000000E+00

 stresses (elem, integ.pnt.,sxx,syy,szz,sxy,sxz,syz) for set E1 and time  0.3178125E+00

        32   1  2.955858E-12  2.756906E-12  8.012572E+02 -3.761884E-13 -1.542372E-12 -3.097285E-12
        32   2 -4.661160E-12 -4.490630E-12  8.012572E+02  4.388865E-14  5.904068E-13 -8.088051E-13
        32   3 -3.439027E-12 -2.955858E-12  8.012572E+02 -4.179871E-14  4.096274E-13 -3.260300E-12
        32   4 -9.379164E-13 -6.536993E-13  8.012572E+02 -5.851820E-13 -7.544668E-13 -1.922741E-12
        32   5  1.534772E-12  2.273737E-13  8.012572E+02  1.044968E-13  2.583160E-12  1.036608E-12
        32   6  8.810730E-13  1.250555E-12  8.012572E+02 -1.713747E-13 -3.487058E-12 -9.049421E-13
        32   7 -3.694822E-13 -1.591616E-12  8.012572E+02  4.932248E-13 -5.768222E-13  5.350235E-13
        32   8  1.989520E-12  1.733724E-12  8.012572E+02  3.343897E-14 -1.297850E-12 -2.900831E-12

 equivalent plastic strain (elem, integ.pnt.,pe)for set E1 and time  0.3178125E+00

        32   1  1.571459E-04
        32   2  1.571459E-04
        32   3  1.571459E-04
        32   4  1.571459E-04
        32   5  1.571459E-04
        32   6  1.571459E-04
        32   7  1.571459E-04
        32   8  1.571459E-04

 stresses (elem, integ.pnt.,sxx,syy,szz,sxy,sxz,syz) for set E1 and time  0.4178125E+00

        32   1  1.506351E-12  2.444267E-12  8.108902E+02 -5.471213E-13 -1.594703E-12 -3.710597E-12
        32   2  1.506351E-12  5.684342E-13  8.108902E+02 -5.167230E-13 -1.597595E-12  3.792570E-14
        32   3 -9.379164E-13 -2.557954E-13  8.108902E+02 -6.876047E-13  8.743858E-13 -1.483146E-12
        32   4 -5.684342E-13  6.252776E-13  8.108902E+02 -5.913364E-13  2.128983E-12  4.285307E-12
        32   5 -2.899014E-12 -3.865352E-12  8.108902E+02  3.956197E-13 -1.333169E-12  2.095368E-12
        32   6  2.415845E-12  1.165290E-12  8.108902E+02 -3.610831E-13 -2.917751E-12  2.554110E-13
        32   7  4.547474E-13 -5.115908E-13  8.108902E+02  4.850724E-13  1.230853E-12 -3.535708E-13
        32   8 -5.400125E-13 -1.307399E-12  8.108902E+02  6.323003E-14 -1.123479E-12  5.328484E-13

 equivalent plastic strain (elem, integ.pnt.,pe)for set E1 and time  0.4178125E+00

        32   1  1.361274E-03
        32   2  1.361274E-03
        32   3  1.361274E-03
        32   4  1.361274E-03
        32   5  1.361274E-03
        32   6  1.361274E-03
        32   7  1.361274E-03
        32   8  1.361274E-03

 stresses (elem, integ.pnt.,sxx,syy,szz,sxy,sxz,syz) for set E1 and time  0.5178125E+00

        32   1  3.240075E-12  3.495870E-12  8.205232E+02 -1.645864E-13 -4.980977E-13  1.836376E-12
        32   2 -8.554935E-12 -1.105604E-11  8.205232E+02  1.646848E-13  1.651734E-12  1.507160E-13
        32   3  1.591616E-12  1.392664E-12  8.205232E+02 -9.400521E-13  9.163396E-13 -1.171616E-12
        32   4  2.131628E-12  1.051603E-12  8.205232E+02 -1.469810E-12 -4.708171E-13 -7.858064E-13
        32   5 -4.774847E-12 -8.100187E-12  8.205232E+02 -2.184914E-13  8.576198E-13  3.477244E-12
        32   6 -3.467449E-12 -1.563194E-12  8.205232E+02 -3.891048E-13  9.338473E-13  1.847001E-12
        32   7 -1.449507E-12 -5.115908E-13  8.205232E+02  6.291484E-13 -2.418844E-13  4.312808E-12
        32   8 -7.958079E-13 -9.947598E-13  8.205232E+02  4.277799E-13  1.315923E-12 -1.758083E-12

 equivalent plastic strain (elem, integ.pnt.,pe)for set E1 and time  0.5178125E+00

        32   1  2.565403E-03
        32   2  2.565403E-03
        32   3  2.565403E-03
        32   4  2.565403E-03
        32   5  2.565403E-03
        32   6  2.565403E-03
        32   7  2.565403E-03
        32   8  2.565403E-03

 stresses (elem, integ.pnt.,sxx,syy,szz,sxy,sxz,syz) for set E1 and time  0.6178125E+00

        32   1 -8.327561E-12 -1.028866E-11  8.301562E+02 -6.790342E-13 -4.203990E-13  1.728146E-12
        32   2 -6.252776E-13 -1.108447E-12  8.301562E+02 -7.253302E-14  3.049444E-12  2.479835E-12
        32   3  1.534772E-12  3.609557E-12  8.301563E+02  6.910654E-13  2.207234E-12  3.512513E-13
        32   4  2.273737E-13  5.400125E-13  8.301563E+02  4.869871E-13  1.229420E-12  8.311164E-13
        32   5  3.126388E-13 -1.847411E-12  8.301563E+02 -5.050920E-13  1.101121E-12  4.840827E-12
        32   6  3.524292E-12  4.547474E-13  8.301563E+02 -1.194426E-13 -5.158461E-13  3.087016E-12
        32   7  3.922196E-12  5.712764E-12  8.301563E+02  1.545077E-13  3.523522E-13 -2.818823E-13
        32   8  1.989520E-13  7.105427E-13  8.301563E+02  6.706416E-14 -1.530685E-12 -6.269890E-13

 equivalent plastic strain (elem, integ.pnt.,pe)for set E1 and time  0.6178125E+00

        32   1  3.769531E-03
        32   2  3.769531E-03
        32   3  3.769531E-03
        32   4  3.769531E-03
        32   5  3.769531E-03
        32   6  3.769531E-03
        32   7  3.769531E-03
        32   8  3.769531E-03

 stresses (elem, integ.pnt.,sxx,syy,szz,sxy,sxz,syz) for set E1 and time  0.7178125E+00

        32   1 -4.121148E-12 -2.927436E-12  8.397893E+02 -5.559393E-13 -1.741790E-12 -1.668018E-12
        32   2  3.211653E-12  5.684342E-14  8.397893E+02  8.852811E-13 -4.299256E-12  2.100377E-12
        32   3  2.444267E-12  2.245315E-12  8.397893E+02 -2.800073E-13  5.927472E-12  9.885748E-13
        32   4  3.410605E-13 -5.115908E-13  8.397893E+02 -6.394338E-13 -2.324106E-12  2.033606E-12
        32   5 -4.632739E-12 -6.735945E-12  8.397893E+02  4.310260E-13  4.662516E-13  7.336080E-12
        32   6  2.103206E-12  2.103206E-12  8.397893E+02 -3.356083E-13  1.029081E-12 -4.718181E-12
        32   7 -4.746425E-12 -1.193712E-12  8.397893E+02  3.616319E-13  4.264909E-12 -5.408434E-12
        32   8  1.762146E-12  1.961098E-12  8.397893E+02 -1.224528E-13 -1.174996E-12 -4.273761E-12

 equivalent plastic strain (elem, integ.pnt.,pe)for set E1 and time  0.7178125E+00

        32   1  4.973660E-03
        32   2  4.973660E-03
        32   3  4.973660E-03
        32   4  4.973660E-03
        32   5  4.973660E-03
        32   6  4.973660E-03
        32   7  4.973660E-03
        32   8  4.973660E-03

 stresses (elem, integ.pnt.,sxx,syy,szz,sxy,sxz,syz) for set E1 and time  0.8178125E+00

        32   1 -3.694822E-13 -3.694822E-13  8.494223E+02 -1.169902E-12 -4.144876E-12 -1.580495E-12
        32   2  1.421085E-12  1.648459E-12  8.494223E+02  8.534743E-14 -3.675882E-12 -3.233952E-12
        32   3 -7.105427E-13  6.252776E-13  8.494223E+02  1.174876E-13  2.664767E-13 -1.506402E-12
        32   4  6.764367E-12  9.009682E-12  8.494223E+02  5.017662E-13  3.119569E-12  3.338741E-12
        32   5 -2.756906E-12 -4.945377E-12  8.494223E+02  1.252821E-13  4.127544E-12  2.670710E-12
        32   6  1.011813E-11  8.157031E-12  8.494223E+02  8.452383E-13  3.534539E-12 -1.360905E-12
        32   7  3.353762E-12  5.513812E-12  8.494223E+02 -1.610216E-13 -1.127452E-12  3.952503E-12
        32   8 -2.586376E-12 -2.643219E-12  8.494223E+02  3.781582E-13  3.244857E-12  1.981253E-12

 equivalent plastic strain (elem, integ.pnt.,pe)for set E1 and time  0.8178125E+00

        32   1  6.177788E-03
        32   2  6.177788E-03
        32   3  6.177788E-03
        32   4  6.177788E-03
        32   5  6.177788E-03
        32   6  6.177788E-03
        32   7  6.177788E-03
        32   8  6.177788E-03

 stresses (elem, integ.pnt.,sxx,syy,szz,sxy,sxz,syz) for set E1 and time  0.9178125E+00

        32   1 -6.991741E-12 -8.100187E-12  8.590553E+02 -4.157165E-13 -3.564675E-12  6.374514E-13
        32   2 -1.071498E-11 -1.128342E-11  8.590553E+02 -1.846908E-13  6.263838E-12  2.057156E-12
        32   3 -5.883294E-12 -2.813749E-12  8.590553E+02  1.399956E-13  2.133822E-12 -2.745620E-12
        32   4 -2.501110E-12 -2.586376E-12  8.590553E+02 -4.229419E-13  5.113357E-12  2.309236E-12
        32   5 -4.803269E-12 -5.940137E-12  8.590553E+02 -6.516809E-13 -3.579959E-12  8.169708E-13
        32   6  6.508571E-12  7.219114E-12  8.590553E+02  1.341442E-13 -3.182635E-12  2.739543E-12
        32   7  1.307399E-12  2.927436E-12  8.590553E+02  1.674234E-13  2.923614E-12 -6.201159E-12
        32   8  5.684342E-14 -1.335820E-12  8.590553E+02  3.476519E-13 -2.349710E-12 -4.443436E-12

 equivalent plastic strain (elem, integ.pnt.,pe)for set E1 and time  0.9178125E+00

        32   1  7.381917E-03
        32   2  7.381917E-03
        32   3  7.381917E-03
        32   4  7.381917E-03
        32   5  7.381917E-03
        32   6  7.381917E-03
        32   7  7.381917E-03
        32   8  7.381917E-03

 stresses (elem, integ.pnt.,sxx,syy,szz,sxy,sxz,syz) for set E1 and time  0.1000000E+01

        32   1 -1.980993E-11 -1.656986E-11  8.669725E+02 -4.902778E-13  1.392070E-12 -4.302438E-12
        32   2  1.867306E-11  1.531930E-11  8.669725E+02  2.372828E-12  1.809539E-12  4.664001E-12
        32   3  6.252776E-13  9.094947E-13  8.669725E+02 -3.842335E-13  6.555591E-12  4.489430E-12
        32   4 -2.557954E-13 -2.103206E-12  8.669725E+02  7.456646E-13  2.414027E-12 -4.529439E-12
        32   5 -1.011813E-11 -9.549694E-12  8.669725E+02 -6.888364E-13  9.067790E-13  7.197817E-12
        32   6  3.637979E-12  1.108447E-12  8.669725E+02 -5.269278E-14  1.770221E-12  4.996571E-13
        32   7  2.415845E-12  1.989520E-12  8.669725E+02  6.524844E-13  4.704778E-12  1.343565E-12
        32   8 -3.097966E-12 -2.529532E-12  8.669725E+02 -3.244642E-13  4.086154E-12  9.506537E-13

 equivalent plastic strain (elem, integ.pnt.,pe)for set E1 and time  0.1000000E+01

        32   1  8.371560E-03
        32   2  8.371560E-03
        32   3  8.371560E-03
        32   4  8.371560E-03
        32   5  8.371560E-03
        32   6  8.371560E-03
        32   7  8.371560E-03
        32   8  8.371560E-03

 stresses (elem, integ.pnt.,sxx,syy,szz,sxy,sxz,syz) for set E1 and time  0.2000000E+01

        32   1 -9.521273E-12 -6.735945E-12  8.669725E+02  5.955924E-13 -7.732742E-12  2.142726E-12
        32   2  3.410605E-13 -1.620037E-12  8.669725E+02 -8.672684E-13  3.762354E-12 -1.241218E-11
        32   3 -3.893774E-12 -1.222134E-12  8.669725E+02  1.016889E-12 -9.404158E-13  1.459492E-13
        32   4  1.676881E-12  3.353762E-12  8.669725E+02 -1.137094E-12 -1.439060E-12 -3.023232E-12
        32   5 -6.082246E-12 -5.826450E-12  8.669725E+02 -1.354370E-12  1.309602E-12  7.022677E-12
        32   6  2.160050E-12  4.831691E-13  8.669725E+02 -7.896383E-14  8.988980E-13  3.949922E-12
        32   7  3.154810E-12  2.586376E-12  8.669725E+02 -1.881892E-13  3.513823E-12  2.884800E-12
        32   8 -1.222134E-12 -1.932676E-12  8.669725E+02 -9.549695E-13  2.685031E-12  2.982282E-12

 equivalent plastic strain (elem, integ.pnt.,pe)for set E1 and time  0.2000000E+01

        32   1  8.371560E-03
        32   2  8.371560E-03
        32   3  8.371560E-03
        32   4  8.371560E-03
        32   5  8.371560E-03
        32   6  8.371560E-03
        32   7  8.371560E-03
        32   8  8.371560E-03

 stresses (elem, integ.pnt.,sxx,syy,szz,sxy,sxz,syz) for set E1 and time  0.2010000E+01

        32   1 -4.120722E-10 -4.115108E-10  8.213200E+01 -3.451456E-13 -3.036738E-13 -3.723257E-13
        32   2 -3.879741E-10 -3.882548E-10  8.213200E+01  2.810488E-13  5.112802E-13 -9.753171E-13
        32   3 -4.179554E-10 -4.176748E-10  8.213200E+01 -8.729164E-14 -4.102467E-13  3.383588E-13
        32   4 -4.033502E-10 -4.034888E-10  8.213200E+01 -2.176149E-13  6.128818E-13 -6.475194E-13
        32   5 -4.028600E-10 -4.035599E-10  8.213200E+01 -1.038823E-13  2.501638E-13  5.606576E-13
        32   6 -3.977121E-10 -3.985505E-10  8.213200E+01  2.155274E-13  2.509649E-13  2.432528E-13
        32   7 -4.094076E-10 -4.082885E-10  8.213200E+01  2.668835E-13  6.591867E-13 -7.970411E-13
        32   8 -3.935767E-10 -3.935767E-10  8.213200E+01 -7.868075E-14 -6.185015E-13 -1.743550E-13

 equivalent plastic strain (elem, integ.pnt.,pe)for set E1 and time  0.2010000E+01

        32   1  1.210890E-02
        32   2  1.210890E-02
        32   3  1.210890E-02
        32   4  1.210890E-02
        32   5  1.210890E-02
        32   6  1.210890E-02
        32   7  1.210890E-02
        32   8  1.210890E-02

 stresses (elem, integ.pnt.,sxx,syy,szz,sxy,sxz,syz) for set E1 and time  0.2020000E+01

        32   1  1.347110E-04  1.347110E-04  4.469159E+01  4.300780E-13 -4.669531E-12  1.378058E-12
        32   2  1.347110E-04  1.347110E-04  4.469159E+01 -4.033665E-15  2.622028E-13 -6.591786E-12
        32   3  1.347110E-04  1.347110E-04  4.469159E+01  2.584028E-13 -5.480694E-12 -3.105197E-12
        32   4  1.347110E-04  1.347110E-04  4.469159E+01 -1.863503E-13 -1.273551E-12 -9.526406E-13
        32   5  1.347110E-04  1.347110E-04  4.469159E+01 -7.830781E-13 -1.137386E-12  2.316505E-13
        32   6  1.347110E-04  1.347110E-04  4.469159E+01  8.732776E-14 -1.798216E-12 -8.336581E-13
        32   7  1.347110E-04  1.347110E-04  4.469159E+01  1.891386E-13 -4.331329E-12  3.584410E-12
        32   8  1.347110E-04  1.347110E-04  4.469159E+01 -1.041883E-12 -1.365352E-12 -6.051787E-13

 equivalent plastic strain (elem, integ.pnt.,pe)for set E1 and time  0.2020000E+01

        32   1  1.228718E-02
        32   2  1.228718E-02
        32   3  1.228718E-02
        32   4  1.228718E-02
        32   5  1.228718E-02
        32   6  1.228718E-02
        32   7  1.228718E-02
        32   8  1.228718E-02

 stresses (elem, integ.pnt.,sxx,syy,szz,sxy,sxz,syz) for set E1 and time  0.2035000E+01

        32   1  7.910113E-07  7.910119E-07  3.277622E+01  5.127408E-13  6.704533E-12  6.992015E-12
        32   2  7.910152E-07  7.910149E-07  3.277622E+01  7.991604E-13  2.726945E-15 -4.100965E-12
        32   3  7.910136E-07  7.910133E-07  3.277622E+01  2.807506E-13 -6.084774E-14  3.734891E-12
        32   4  7.910113E-07  7.910127E-07  3.277622E+01 -5.199448E-13 -9.095444E-13  3.696699E-12
        32   5  7.910122E-07  7.910118E-07  3.277622E+01 -7.861034E-13 -1.726666E-12  3.445235E-12
        32   6  7.910230E-07  7.910249E-07  3.277622E+01  3.761533E-13 -1.183544E-12  2.818119E-12
        32   7  7.910159E-07  7.910139E-07  3.277622E+01 -1.347373E-12  5.190728E-12  3.413559E-12
        32   8  7.910095E-07  7.910095E-07  3.277622E+01 -3.823510E-13  5.187397E-13  1.029599E-12

 equivalent plastic strain (elem, integ.pnt.,pe)for set E1 and time  0.2035000E+01

        32   1  1.234392E-02
        32   2  1.234392E-02
        32   3  1.234392E-02
        32   4  1.234392E-02
        32   5  1.234392E-02
        32   6  1.234392E-02
        32   7  1.234392E-02
        32   8  1.234392E-02

 stresses (elem, integ.pnt.,sxx,syy,szz,sxy,sxz,syz) for set E1 and time  0.2057500E+01

        32   1  2.976783E-08  2.976699E-08  2.654670E+01 -7.128749E-13  2.547092E-12 -1.085719E-12
        32   2  2.976356E-08  2.976328E-08  2.654670E+01 -6.666529E-13 -1.145229E-12  6.758100E-12
        32   3  2.976055E-08  2.976279E-08  2.654670E+01  1.658014E-13  5.740676E-12 -2.684081E-12
        32   4  2.976314E-08  2.976538E-08  2.654670E+01 -1.394592E-12  2.812518E-12  2.771213E-12
        32   5  2.976311E-08  2.976381E-08  2.654670E+01  5.672515E-14  2.582971E-12 -1.092758E-12
        32   6  2.976801E-08  2.976815E-08  2.654670E+01  1.088487E-12  4.543648E-12  1.438957E-12
        32   7  2.977060E-08  2.976850E-08  2.654670E+01  2.628141E-13  1.934692E-12  1.032351E-12
        32   8  2.976962E-08  2.976920E-08  2.654670E+01  3.675580E-13  4.391290E-12 -7.184608E-14

 equivalent plastic strain (elem, integ.pnt.,pe)for set E1 and time  0.2057500E+01

        32   1  1.237359E-02
        32   2  1.237359E-02
        32   3  1.237359E-02
        32   4  1.237359E-02
        32   5  1.237359E-02
        32   6  1.237359E-02
        32   7  1.237359E-02
        32   8  1.237359E-02

 stresses (elem, integ.pnt.,sxx,syy,szz,sxy,sxz,syz) for set E1 and time  0.2091250E+01

        32   1  2.484400E-09  2.483279E-09  2.247886E+01  5.114080E-13  3.539814E-13 -4.635149E-13
        32   2  2.481634E-09  2.482334E-09  2.247886E+01  5.568901E-13  2.091605E-12 -8.050410E-12
        32   3  2.480688E-09  2.478446E-09  2.247886E+01  1.006486E-12  4.053597E-12 -2.799994E-12
        32   4  2.492807E-09  2.493648E-09  2.247886E+01 -1.032630E-13  7.165934E-12  3.335714E-12
        32   5  2.482895E-09  2.484436E-09  2.247886E+01 -1.704043E-13  3.401965E-13  1.906815E-12
        32   6  2.488499E-09  2.489760E-09  2.247886E+01 -1.499672E-13 -4.409227E-12  4.051923E-12
        32   7  2.486747E-09  2.486607E-09  2.247886E+01 -3.911102E-13  2.991421E-12  5.258603E-12
        32   8  2.477255E-09  2.478376E-09  2.247886E+01 -4.421023E-13 -2.481489E-12  4.345140E-12

 equivalent plastic strain (elem, integ.pnt.,pe)for set E1 and time  0.2091250E+01

        32   1  1.239296E-02
        32   2  1.239296E-02
        32   3  1.239296E-02
        32   4  1.239296E-02
        32   5  1.239296E-02
        32   6  1.239296E-02
        32   7  1.239296E-02
        32   8  1.239296E-02

 stresses (elem, integ.pnt.,sxx,syy,szz,sxy,sxz,syz) for set E1 and time  0.2141875E+01

        32   1  7.525429E-10  7.525429E-10  1.948946E+01  4.345076E-13 -4.386588E-12 -1.854898E-13
        32   2  7.628760E-10  7.618945E-10  1.948946E+01 -9.974675E-14  4.192495E-13 -2.293893E-12
        32   3  7.637517E-10  7.645928E-10  1.948946E+01  7.658577E-13 -6.912735E-12 -2.021828E-12
        32   4  7.677103E-10  7.695320E-10  1.948946E+01  5.362894E-14  1.064516E-13  2.476992E-12
        32   5  7.581473E-10  7.617897E-10  1.948946E+01  8.224485E-13 -2.181113E-12 -1.296481E-12
        32   6  7.669749E-10  7.636123E-10  1.948946E+01  8.918941E-13 -5.126373E-12  5.205969E-12
        32   7  7.716334E-10  7.681304E-10  1.948946E+01 -3.322990E-13 -5.077189E-12  1.967951E-12
        32   8  7.595489E-10  7.606697E-10  1.948946E+01 -4.723463E-13 -6.021905E-12 -8.021344E-13

 equivalent plastic strain (elem, integ.pnt.,pe)for set E1 and time  0.2141875E+01

        32   1  1.240719E-02
        32   2  1.240719E-02
        32   3  1.240719E-02
        32   4  1.240719E-02
        32   5  1.240719E-02
        32   6  1.240719E-02
        32   7  1.240719E-02
        32   8  1.240719E-02

 stresses (elem, integ.pnt.,sxx,syy,szz,sxy,sxz,syz) for set E1 and time  0.2217812E+01

        32   1  2.962670E-10  2.976681E-10  1.713434E+01  3.750293E-13 -6.869909E-12 -1.490359E-12
        32   2  2.973182E-10  2.956364E-10  1.713434E+01  8.018982E-14  5.886088E-13 -7.554450E-13
        32   3  2.945857E-10  2.937450E-10  1.713434E+01 -2.762070E-13 -6.087407E-12 -3.679991E-12
        32   4  3.023621E-10  3.026424E-10  1.713434E+01  6.140445E-14  3.871029E-12 -5.632006E-12
        32   5  2.924492E-10  2.909077E-10  1.713434E+01 -6.506275E-13 -1.489517E-12 -1.360876E-12
        32   6  2.964775E-10  2.964775E-10  1.713434E+01 -4.697553E-13 -4.288592E-12 -2.683872E-13
        32   7  2.929395E-10  2.913980E-10  1.713434E+01 -4.682108E-13 -4.140324E-12  8.520352E-13
        32   8  2.912581E-10  2.913985E-10  1.713434E+01 -2.716390E-13 -6.323746E-13  1.363524E-12

 equivalent plastic strain (elem, integ.pnt.,pe)for set E1 and time  0.2217812E+01

        32   1  1.241841E-02
        32   2  1.241841E-02
        32   3  1.241841E-02
        32   4  1.241841E-02
        32   5  1.241841E-02
        32   6  1.241841E-02
        32   7  1.241841E-02
        32   8  1.241841E-02

 stresses (elem, integ.pnt.,sxx,syy,szz,sxy,sxz,syz) for set E1 and time  0.2317813E+01

        32   1  7.215784E-11  7.159739E-11  1.534666E+01  1.025347E-12  3.871286E-12 -4.772098E-12
        32   2  7.009060E-11  7.023093E-11  1.534666E+01  1.081939E-12  3.413213E-13  2.143947E-12
        32   3  7.040635E-11  7.152723E-11  1.534666E+01  5.284651E-13  1.056438E-12  2.808083E-12
        32   4  7.128209E-11  6.918022E-11  1.534666E+01  7.025641E-13  1.652342E-12 -4.625056E-12
        32   5  7.026602E-11  6.886491E-11  1.534666E+01 -7.949379E-14  5.866067E-12  7.456693E-13
        32   6  7.033618E-11  7.173728E-11  1.534666E+01  2.497764E-13 -3.352039E-12  2.048373E-12
        32   7  7.415446E-11  7.121193E-11  1.534666E+01 -5.671254E-13 -5.811219E-12  1.121618E-12
        32   8  6.711343E-11  6.823431E-11  1.534666E+01 -9.278470E-14  1.820146E-12  5.432237E-12

 equivalent plastic strain (elem, integ.pnt.,pe)for set E1 and time  0.2317813E+01

        32   1  1.242692E-02
        32   2  1.242692E-02
        32   3  1.242692E-02
        32   4  1.242692E-02
        32   5  1.242692E-02
        32   6  1.242692E-02
        32   7  1.242692E-02
        32   8  1.242692E-02

 stresses (elem, integ.pnt.,sxx,syy,szz,sxy,sxz,syz) for set E1 and time  0.2417813E+01

        32   1  5.950795E-13  1.856293E-12  1.415381E+01  5.992762E-13 -5.378519E-12  1.620562E-12
        32   2 -1.786571E-12 -3.607781E-12  1.415381E+01  1.927800E-12  1.153059E-12 -2.100370E-12
        32   3  4.518164E-12  4.658496E-12  1.415381E+01  7.370193E-13 -5.038844E-12 -1.143933E-12
        32   4  1.260769E-12 -1.403322E-13  1.415381E+01 -6.925152E-13  5.496365E-12 -1.182408E-12
        32   5  8.402168E-13  2.241318E-12  1.415381E+01 -7.244863E-14 -9.906687E-13  7.434315E-13
        32   6  6.550316E-12  3.327560E-12  1.415381E+01  9.858277E-13 -5.808766E-13  1.196438E-12
        32   7  3.923084E-12  2.802203E-12  1.415381E+01  4.408472E-13 -5.232350E-12  2.171468E-12
        32   8  3.572698E-12  3.852918E-12  1.415381E+01 -1.217853E-12 -3.480880E-12  1.279578E-12

 equivalent plastic strain (elem, integ.pnt.,pe)for set E1 and time  0.2417813E+01

        32   1  1.243260E-02
        32   2  1.243260E-02
        32   3  1.243260E-02
        32   4  1.243260E-02
        32   5  1.243260E-02
        32   6  1.243260E-02
        32   7  1.243260E-02
        32   8  1.243260E-02

 stresses (elem, integ.pnt.,sxx,syy,szz,sxy,sxz,syz) for set E1 and time  0.2517812E+01

        32   1 -1.635847E-11 -1.369616E-11  1.328485E+01 -2.895968E-13  1.903750E-12  3.070192E-12
        32   2  5.955236E-13  1.015632E-12  1.328485E+01  5.816573E-14 -4.847440E-12  1.399814E-11
        32   3 -1.562261E-11 -1.197975E-11  1.328485E+01  1.967489E-13  6.562320E-13 -4.122568E-13
        32   4 -1.373124E-11 -1.317080E-11  1.328485E+01 -4.403547E-13  6.322845E-13 -3.177521E-13
        32   5 -1.418687E-11 -1.460698E-11  1.328485E+01  3.071896E-13  2.189280E-12  9.518191E-13
        32   6 -3.257838E-12 -5.359269E-12  1.328485E+01 -1.973952E-14 -2.567589E-12  6.646395E-13
        32   7 -8.582024E-12 -8.722356E-12  1.328485E+01  1.167807E-13  2.821339E-12 -6.579376E-12
        32   8 -1.986100E-11 -1.916067E-11  1.328485E+01 -1.686831E-14 -2.520065E-12 -2.432946E-13

 equivalent plastic strain (elem, integ.pnt.,pe)for set E1 and time  0.2517812E+01

        32   1  1.243674E-02
        32   2  1.243674E-02
        32   3  1.243674E-02
        32   4  1.243674E-02
        32   5  1.243674E-02
        32   6  1.243674E-02
        32   7  1.243674E-02
        32   8  1.243674E-02

 stresses (elem, integ.pnt.,sxx,syy,szz,sxy,sxz,syz) for set E1 and time  0.2617812E+01

        32   1  2.451372E-13 -1.576517E-12  1.261417E+01 -1.078406E-13  3.905925E-12 -1.727744E-12
        32   2  1.120437E-12 -4.440892E-16  1.261417E+01  3.188306E-13  3.770229E-12 -5.515643E-12
        32   3 -1.891820E-12 -3.853362E-12  1.261417E+01  9.114506E-13  4.182664E-12 -3.688765E-12
        32   4  6.129763E-12  3.187672E-12  1.261417E+01 -5.139113E-13  3.152084E-13 -1.421500E-12
        32   5 -1.751488E-12 -5.674572E-12  1.261417E+01  8.174873E-13  4.950744E-13 -6.213532E-13
        32   6 -7.358558E-13 -1.155964E-12  1.261417E+01  4.269470E-13  8.605329E-13 -8.671806E-13
        32   7  1.891376E-12  4.973799E-12  1.261417E+01  9.021115E-13  5.430542E-12  6.656279E-13
        32   8  1.295852E-12  8.752998E-13  1.261417E+01 -9.069843E-13 -2.242386E-12 -1.450356E-12

 equivalent plastic strain (elem, integ.pnt.,pe)for set E1 and time  0.2617812E+01

        32   1  1.243993E-02
        32   2  1.243993E-02
        32   3  1.243993E-02
        32   4  1.243993E-02
        32   5  1.243993E-02
        32   6  1.243993E-02
        32   7  1.243993E-02
        32   8  1.243993E-02

 stresses (elem, integ.pnt.,sxx,syy,szz,sxy,sxz,syz) for set E1 and time  0.2717812E+01

        32   1 -4.588774E-12 -2.206679E-12  1.207507E+01  1.046708E-12 -1.465449E-12  2.254406E-12
        32   2  5.008882E-12  4.027889E-12  1.207507E+01  1.918844E-12  4.509933E-12  5.747541E-12
        32   3  8.055778E-13  6.656897E-13  1.207507E+01  7.335501E-13 -5.416239E-12  4.486837E-12
        32   4  1.821210E-12  2.942091E-12  1.207507E+01  3.440662E-13  4.696954E-12  1.346414E-12
        32   5 -3.958167E-12 -2.697398E-12  1.207507E+01 -1.471124E-12 -9.548398E-14  8.748165E-13
        32   6 -7.007728E-13  4.201084E-13  1.207507E+01  1.728465E-13  3.624914E-12 -2.520836E-14
        32   7 -1.366462E-12 -1.786571E-12  1.207507E+01  1.290973E-12  4.964626E-12  1.965500E-12
        32   8 -1.052491E-13 -1.366018E-12  1.207507E+01 -1.629981E-13 -1.049890E-12  1.618780E-12

 equivalent plastic strain (elem, integ.pnt.,pe)for set E1 and time  0.2717812E+01

        32   1  1.244250E-02
        32   2  1.244250E-02
        32   3  1.244250E-02
        32   4  1.244250E-02
        32   5  1.244250E-02
        32   6  1.244250E-02
        32   7  1.244250E-02
        32   8  1.244250E-02

 stresses (elem, integ.pnt.,sxx,syy,szz,sxy,sxz,syz) for set E1 and time  0.2817813E+01

        32   1 -3.958167E-12 -3.538059E-12  1.162855E+01 -5.070882E-13 -5.126430E-12  8.967773E-12
        32   2  3.503864E-13  1.471268E-12  1.162855E+01 -2.253954E-13  3.816054E-13 -1.934234E-12
        32   3 -2.837286E-12 -2.697398E-12  1.162855E+01  1.992988E-13 -9.601602E-13 -2.143578E-12
        32   4 -8.757439E-13 -2.697398E-12  1.162855E+01 -7.438735E-13 -1.388933E-12 -4.983052E-12
        32   5 -5.779821E-12 -6.200374E-12  1.162855E+01 -6.540150E-13  5.626349E-13  1.642707E-12
        32   6 -1.085798E-12 -5.709655E-12  1.162855E+01  8.195809E-13  6.661306E-14  1.979992E-12
        32   7 -3.503864E-13 -1.191047E-12  1.162855E+01  1.001408E-12 -4.570667E-12  3.626291E-12
        32   8 -4.798828E-12 -3.818279E-12  1.162855E+01 -8.940053E-13 -3.839640E-12  8.792614E-13

 equivalent plastic strain (elem, integ.pnt.,pe)for set E1 and time  0.2817813E+01

        32   1  1.244463E-02
        32   2  1.244463E-02
        32   3  1.244463E-02
        32   4  1.244463E-02
        32   5  1.244463E-02
        32   6  1.244463E-02
        32   7  1.244463E-02
        32   8  1.244463E-02

 stresses (elem, integ.pnt.,sxx,syy,szz,sxy,sxz,syz) for set E1 and time  0.2917813E+01

        32   1 -6.550760E-12 -6.970868E-12  1.125010E+01  1.029226E-12  7.844720E-12 -5.461958E-12
        32   2  4.798384E-12  4.378276E-12  1.125010E+01  2.126516E-12  2.099675E-12 -4.374049E-12
        32   3  1.330935E-12  7.704948E-13  1.125010E+01  3.604485E-13 -4.758350E-14  1.578197E-12
        32   4  6.584955E-12  5.464074E-12  1.125010E+01  5.146742E-13 -2.314896E-12 -1.054025E-12
        32   5 -4.203748E-12 -1.681766E-12  1.125010E+01 -9.667711E-13 -1.751298E-12 -1.689441E-12
        32   6  0.000000E+00 -2.241762E-12  1.125010E+01  5.529230E-13 -1.432169E-12  1.046170E-12
        32   7  1.155964E-12  3.817835E-12  1.125010E+01  5.357033E-14  3.490423E-12  9.281323E-13
        32   8 -1.317080E-11 -1.148948E-11  1.125010E+01 -8.437419E-13  1.193120E-12 -1.041871E-12

 equivalent plastic strain (elem, integ.pnt.,pe)for set E1 and time  0.2917813E+01

        32   1  1.244643E-02
        32   2  1.244643E-02
        32   3  1.244643E-02
        32   4  1.244643E-02
        32   5  1.244643E-02
        32   6  1.244643E-02
        32   7  1.244643E-02
        32   8  1.244643E-02

 stresses (elem, integ.pnt.,sxx,syy,szz,sxy,sxz,syz) for set E1 and time  0.3000000E+01

        32   1  2.171596E-12  1.891376E-12  1.097525E+01  7.449888E-13 -8.359409E-12  1.568393E-12
        32   2 -2.455813E-13  1.576073E-12  1.097525E+01  1.688229E-13  3.555127E-13 -2.455370E-12
        32   3 -7.007728E-13  1.260769E-12  1.097525E+01  2.188720E-12  2.404945E-12 -1.325850E-12
        32   4  1.366018E-12  4.588774E-12  1.097525E+01 -6.743096E-13 -2.045618E-12  9.501479E-13
        32   5 -3.117506E-12 -5.499157E-12  1.097525E+01  6.264194E-13  2.076807E-12 -6.547086E-13
        32   6  2.732037E-12  1.330935E-12  1.097525E+01  1.014015E-12 -3.660152E-12  1.195522E-12
        32   7 -3.958167E-12 -3.257394E-12  1.097525E+01  1.201545E-13  9.412052E-13  2.536195E-12
        32   8  3.327560E-12  3.467893E-12  1.097525E+01 -4.285363E-13 -3.538507E-12  8.598278E-13

 equivalent plastic strain (elem, integ.pnt.,pe)for set E1 and time  0.3000000E+01

        32   1  1.244774E-02
        32   2  1.244774E-02
        32   3  1.244774E-02
        32   4  1.244774E-02
        32   5  1.244774E-02
        32   6  1.244774E-02
        32   7  1.244774E-02
        32   8  1.244774E-02
