
 displacements (vx,vy,vz) for set NALL and time  0.1000000E+01

         1  0.000000E+00  0.000000E+00  0.000000E+00
         2  0.000000E+00  0.000000E+00  0.000000E+00
         3  0.000000E+00  0.000000E+00 -2.939934E-06
         4  0.000000E+00  0.000000E+00 -2.939934E-06
         5  0.000000E+00  0.000000E+00  0.000000E+00
         6  0.000000E+00  0.000000E+00  0.000000E+00
         7  0.000000E+00  0.000000E+00 -2.939934E-06
         8  0.000000E+00  0.000000E+00 -2.939934E-06
         9  0.000000E+00  0.000000E+00 -2.987416E-06
        10  0.000000E+00  0.000000E+00 -2.987416E-06
        11  0.000000E+00  0.000000E+00  0.000000E+00
        12  0.000000E+00  0.000000E+00  0.000000E+00
        13  0.000000E+00  0.000000E+00 -2.987416E-06
        14  0.000000E+00  0.000000E+00 -2.987416E-06
        15  0.000000E+00  0.000000E+00  0.000000E+00
        16  0.000000E+00  0.000000E+00  0.000000E+00

 forces (fx,fy,fz) for set NALL and time  0.1000000E+01

         1 -8.904596E-02 -8.904596E-02  2.077733E-01
         2 -8.904596E-02  8.904596E-02  2.077733E-01
         3 -8.904596E-02  8.904596E-02  5.876711E-02
         4 -8.904596E-02 -8.904596E-02  5.876711E-02
         5  8.904596E-02 -8.904596E-02  2.077733E-01
         6  8.904596E-02  8.904596E-02  2.077733E-01
         7  8.904596E-02  8.904596E-02 -5.876696E-02
         8  8.904596E-02 -8.904596E-02 -5.876696E-02
         9  5.959374E-20  2.559294E-02 -4.222671E-02
        10  2.559294E-02  2.932950E-18 -8.733202E-01
        11  2.559294E-02  2.488060E-18  4.222671E-02
        12 -1.270596E-18  2.559294E-02  4.222671E-02
        13 -2.559294E-02 -2.596481E-18 -4.222671E-02
        14 -1.859959E-18 -2.559294E-02 -4.222671E-02
        15  5.249783E-18 -2.559294E-02  4.222671E-02
        16 -2.559294E-02 -1.415067E-18  4.222671E-02

 stresses (elem, integ.pnt.,sxx,syy,szz,sxy,sxz,syz) for set EALL and time  0.1000000E+01

         1   1 -3.561849E-01 -3.561849E-01 -8.310931E-01  0.000000E+00  0.000000E+00  0.000000E+00
         1   2 -3.561849E-01 -3.561849E-01 -8.310931E-01  0.000000E+00 -2.137928E-18  0.000000E+00
         1   3 -3.561849E-01 -3.561849E-01 -8.310931E-01  0.000000E+00  1.710342E-17  0.000000E+00
         1   4 -3.561849E-01 -3.561849E-01 -8.310931E-01  0.000000E+00  8.551712E-18  0.000000E+00
         1   5 -3.561849E-01 -3.561849E-01 -8.310931E-01  0.000000E+00  0.000000E+00  0.000000E+00
         1   6 -3.561849E-01 -3.561849E-01 -8.310931E-01  0.000000E+00 -2.137928E-18  0.000000E+00
         1   7 -3.561849E-01 -3.561849E-01 -8.310931E-01  0.000000E+00  5.131027E-17  0.000000E+00
         1   8 -3.561849E-01 -3.561849E-01 -8.310931E-01  0.000000E+00  5.131027E-17  0.000000E+00
         2   1  1.809671E+00  1.809671E+00  4.222693E+00  4.660292E-38  1.100438E-16  3.420838E-17
         2   2  1.809671E+00  1.809671E+00  4.222693E+00  0.000000E+00  2.052503E-16  0.000000E+00
         2   3  1.809671E+00  1.809671E+00  4.222693E+00 -1.494521E-39  1.411609E-17 -8.552094E-18
         2   4  1.809671E+00  1.809671E+00  4.222693E+00  2.028188E-37 -1.197293E-16 -1.368335E-16
         2   5  1.809671E+00  1.809671E+00  4.222693E+00  3.476893E-37  2.052503E-16  1.368335E-16
         2   6  1.809671E+00  1.809671E+00  4.222693E+00  2.122449E-37  1.252938E-16  1.368335E-16
         2   7  1.809671E+00  1.809671E+00  4.222693E+00  0.000000E+00  3.420838E-17  0.000000E+00
         2   8  1.809671E+00  1.809671E+00  4.222693E+00  2.269059E-37 -1.339486E-16 -1.368335E-16
