
 displacements (vx,vy,vz) for set NALL and time  0.1000000E+01

         1  3.943964E-03  5.023191E-04  0.000000E+00
         2  3.943964E-03 -5.023191E-04  0.000000E+00
         3  4.920123E-03 -5.022833E-04  0.000000E+00
         4  4.920123E-03  5.022833E-04  0.000000E+00
         5  3.943400E-03  0.000000E+00  0.000000E+00
         6  4.438207E-03 -5.020350E-04  0.000000E+00
         7  4.919771E-03 -8.503382E-17  0.000000E+00
         8  4.438207E-03  5.020350E-04  0.000000E+00
         9  4.911393E-03 -6.242262E-05  0.000000E+00
        10  4.911393E-03  6.242262E-05  0.000000E+00
        11  4.761204E-03  6.243349E-05  0.000000E+00
        12  4.761204E-03 -6.243349E-05  0.000000E+00
        13  4.911040E-03 -1.455199E-16  0.000000E+00
        14  4.829052E-03  6.217742E-05  0.000000E+00
        15  4.760569E-03  0.000000E+00  0.000000E+00
        16  4.829052E-03 -6.217742E-05  0.000000E+00

 stresses (elem, integ.pnt.,sxx,syy,szz,sxy,sxz,syz) for set EALL and time  0.1000000E+01

         1   1 -1.284084E+01 -3.407069E-01 -9.329082E+02 -2.167006E-01 -1.244424E+01  2.929385E-03
         1   2 -1.231957E+01 -1.230142E-01 -9.327040E+02 -5.760546E-13 -1.244844E+01 -3.473706E-13
         1   3 -1.284084E+01 -3.407069E-01 -9.329082E+02  2.167006E-01 -1.244424E+01 -2.929385E-03
         1   4 -4.499554E+01  1.974899E-01 -8.972905E+02 -1.449054E-03 -1.153202E+01  1.956936E-05
         1   5 -4.446477E+01  4.250272E-01 -8.970645E+02 -2.981017E-13 -1.153614E+01  5.503493E-14
         1   6 -4.499554E+01  1.974899E-01 -8.972905E+02  1.449054E-03 -1.153202E+01 -1.956936E-05
         1   7 -7.922876E+01 -3.384673E-01 -8.675267E+02  2.134166E-01 -1.066229E+01 -2.885029E-03
         1   8 -7.869065E+01 -1.032480E-01 -8.672820E+02  8.246222E-13 -1.066633E+01 -6.371230E-13
         1   9 -7.922876E+01 -3.384673E-01 -8.675267E+02 -2.134166E-01 -1.066229E+01  2.885029E-03
         1  10 -1.267820E+01 -3.432832E-01 -9.330790E+02 -2.167501E-01  2.237081E-20  1.741428E-14
         1  11 -1.215618E+01 -1.248740E-01 -9.328742E+02 -3.823716E-13 -1.358790E-12 -1.592341E-29
         1  12 -1.267820E+01 -3.432832E-01 -9.330790E+02  2.167501E-01 -8.012640E-14  1.736379E-14
         1  13 -4.483902E+01  1.980217E-01 -8.974458E+02 -1.451109E-03 -1.108191E-12 -1.298899E-13
         1  14 -4.430830E+01  4.254786E-01 -8.972200E+02 -1.143227E-12 -3.324588E-12  4.688720E-29
         1  15 -4.483902E+01  1.980217E-01 -8.974458E+02  1.451109E-03  9.696671E-13  6.930043E-14
         1  16 -7.907957E+01 -3.364822E-01 -8.676688E+02  2.134620E-01 -5.541872E-13 -4.319937E-14
         1  17 -7.854071E+01 -1.005432E-01 -8.674235E+02 -3.898552E-13 -2.779650E-12  2.060307E-29
         1  18 -7.907957E+01 -3.364822E-01 -8.676688E+02 -2.134620E-01 -3.681210E-13  1.733628E-14
         1  19 -1.284084E+01 -3.407069E-01 -9.329082E+02 -2.167006E-01  1.244424E+01 -2.929385E-03
         1  20 -1.231957E+01 -1.230142E-01 -9.327040E+02 -5.584418E-13  1.244844E+01  3.462863E-13
         1  21 -1.284084E+01 -3.407069E-01 -9.329082E+02  2.167006E-01  1.244424E+01  2.929385E-03
         1  22 -4.499554E+01  1.974899E-01 -8.972905E+02 -1.449054E-03  1.153202E+01 -1.956936E-05
         1  23 -4.446477E+01  4.250272E-01 -8.970645E+02 -7.206684E-13  1.153614E+01 -5.182849E-14
         1  24 -4.499554E+01  1.974899E-01 -8.972905E+02  1.449054E-03  1.153202E+01  1.956936E-05
         1  25 -7.922876E+01 -3.384673E-01 -8.675267E+02  2.134166E-01  1.066229E+01  2.885029E-03
         1  26 -7.869065E+01 -1.032480E-01 -8.672820E+02  1.106221E-12  1.066633E+01  6.420619E-13
         1  27 -7.922876E+01 -3.384673E-01 -8.675267E+02 -2.134166E-01  1.066229E+01 -2.885029E-03
         2   1 -7.428576E+01  3.145571E-01  9.548967E+02  1.980615E-01  1.391957E+01 -2.677416E-03
         2   2 -7.477733E+01  1.079754E-01  9.546997E+02 -9.475902E-13  1.392348E+01  2.331505E-14
         2   3 -7.428576E+01  3.145571E-01  9.548967E+02 -1.980615E-01  1.391957E+01  2.677416E-03
         2   4 -4.168900E+01 -1.789969E-01  9.177485E+02  1.021655E-03  1.298047E+01 -1.382040E-05
         2   5 -4.218880E+01 -3.934797E-01  9.175329E+02  9.161531E-13  1.298432E+01 -1.157438E-14
         2   6 -4.168900E+01 -1.789969E-01  9.177485E+02 -1.021655E-03  1.298047E+01  1.382040E-05
         2   7 -7.104216E+00  3.138506E-01  8.862327E+02 -1.963851E-01  1.208251E+01  2.654737E-03
         2   8 -7.611708E+00  9.199957E-02  8.859997E+02 -1.081200E-12  1.208630E+01  7.671290E-14
         2   9 -7.104216E+00  3.138506E-01  8.862327E+02  1.963851E-01  1.208251E+01 -2.654737E-03
         2  10 -7.446864E+01  3.168190E-01  9.550871E+02  1.981050E-01  5.667845E-13 -2.201742E-15
         2  11 -7.496021E+01  1.102582E-01  9.548902E+02  4.882186E-13 -1.381754E-12  4.392467E-29
         2  12 -7.446864E+01  3.168190E-01  9.550871E+02 -1.981050E-01  6.952802E-13 -3.325689E-15
         2  13 -4.186469E+01 -1.791199E-01  9.179238E+02  1.021037E-03 -1.133290E-12 -1.771678E-14
         2  14 -4.236449E+01 -3.935831E-01  9.177083E+02  9.270325E-13  0.000000E+00  0.000000E+00
         2  15 -4.186469E+01 -1.791199E-01  9.179238E+02 -1.021037E-03  7.083062E-13 -1.323789E-14
         2  16 -7.273006E+00  3.115050E-01  8.863936E+02 -1.964299E-01 -5.841554E-13 -1.105290E-14
         2  17 -7.780505E+00  8.967210E-02  8.861607E+02 -1.072506E-12 -1.708439E-12  9.987094E-30
         2  18 -7.273006E+00  3.115050E-01  8.863936E+02  1.964299E-01 -1.064478E-12  2.417565E-14
         2  19 -7.428576E+01  3.145571E-01  9.548967E+02  1.980615E-01 -1.391957E+01  2.677416E-03
         2  20 -7.477733E+01  1.079754E-01  9.546997E+02 -9.454150E-13 -1.392348E+01 -2.717107E-14
         2  21 -7.428576E+01  3.145571E-01  9.548967E+02 -1.980615E-01 -1.391957E+01 -2.677416E-03
         2  22 -4.168900E+01 -1.789969E-01  9.177485E+02  1.021655E-03 -1.298047E+01  1.382040E-05
         2  23 -4.218880E+01 -3.934797E-01  9.175329E+02  6.353989E-13 -1.298432E+01  8.316283E-15
         2  24 -4.168900E+01 -1.789969E-01  9.177485E+02 -1.021655E-03 -1.298047E+01 -1.382040E-05
         2  25 -7.104216E+00  3.138506E-01  8.862327E+02 -1.963851E-01 -1.208251E+01 -2.654737E-03
         2  26 -7.611708E+00  9.199957E-02  8.859997E+02 -8.068527E-13 -1.208630E+01 -1.105149E-13
         2  27 -7.104216E+00  3.138506E-01  8.862327E+02  1.963851E-01 -1.208251E+01  2.654737E-03
