
 displacements (vx,vy,vz) for set NALL and time  0.7200000E+02

         2  0.000000E+00  0.000000E+00  0.000000E+00
        10  2.751184E-03  0.000000E+00  0.000000E+00
        11  1.375592E-03 -6.157452E-19  0.000000E+00
        12 -2.750963E-18 -1.375592E-03  0.000000E+00
        13 -3.602573E-18 -2.751184E-03  0.000000E+00
        33  1.708463E-18  1.990693E-18  6.000000E-03
        34  5.640139E-18  1.386984E-18  1.200000E-02
        93  2.751184E-03 -1.375592E-03  0.000000E+00
        95  2.751184E-03 -2.751184E-03  0.000000E+00
        96  1.375592E-03 -2.751184E-03  0.000000E+00
       103  2.751184E-03 -1.766504E-18  6.000000E-03
       105  2.751184E-03  4.792604E-19  1.200000E-02
       106  1.375592E-03 -7.699176E-19  1.200000E-02
       132 -1.802091E-18 -2.751184E-03  6.000000E-03
       133  3.419693E-18 -1.375592E-03  1.200000E-02
       134  2.863209E-18 -2.751184E-03  1.200000E-02
       219  2.751184E-03 -2.751184E-03  6.000000E-03
       220  2.751184E-03 -1.375592E-03  1.200000E-02
       222  2.751184E-03 -2.751184E-03  1.200000E-02
       223  1.375592E-03 -2.751184E-03  1.200000E-02

 stresses (elem, integ.pnt.,sxx,syy,szz,sxy,sxz,syz) for set EALL and time  0.7200000E+02

         1   1  3.686930E-09  3.686818E-09  3.063394E+02 -2.080440E-14  1.441977E-13 -1.489671E-13
         1   2  3.686818E-09  3.686874E-09  3.063394E+02  6.331383E-15  1.205074E-13 -3.383057E-14
         1   3  3.686481E-09  3.686509E-09  3.063394E+02  3.330585E-14  2.902699E-14  5.736984E-14
         1   4  3.685807E-09  3.685807E-09  3.063394E+02  1.062758E-14 -2.970621E-14 -1.455635E-13
         1   5  3.685863E-09  3.685947E-09  3.063394E+02  3.646690E-15  1.172958E-13 -1.698104E-13
         1   6  3.686284E-09  3.686284E-09  3.063394E+02  4.496744E-14  1.706718E-13 -9.687148E-14
         1   7  3.687604E-09  3.687464E-09  3.063394E+02 -2.261285E-14  2.032236E-14 -1.092173E-13
         1   8  3.686650E-09  3.686593E-09  3.063394E+02 -6.505451E-15  1.125496E-13 -1.064605E-13
         1   9  3.685526E-09  3.685526E-09  3.063394E+02  5.347103E-14  9.587495E-14 -1.262569E-13
         1  10  3.685807E-09  3.685863E-09  3.063394E+02 -7.224602E-14 -1.364488E-13  2.282271E-13
         1  11  3.686453E-09  3.686453E-09  3.063394E+02  2.521956E-14 -9.751297E-14  1.097502E-13
         1  12  3.685919E-09  3.685919E-09  3.063394E+02  7.138849E-14  4.250786E-14 -2.202468E-13
         1  13  3.686621E-09  3.686537E-09  3.063394E+02  3.703607E-14  2.190829E-14  1.960678E-13
         1  14  3.686284E-09  3.686284E-09  3.063394E+02  1.717286E-14 -1.270558E-13  6.880664E-14
         1  15  3.685751E-09  3.685695E-09  3.063394E+02 -5.774774E-15  1.852537E-14 -6.472651E-14
         1  16  3.685526E-09  3.685526E-09  3.063394E+02  1.161241E-13  1.205398E-13  7.871659E-14
         1  17  3.686172E-09  3.686228E-09  3.063394E+02 -9.831614E-15 -1.615507E-13  1.166326E-13
         1  18  3.686116E-09  3.686116E-09  3.063394E+02 -1.800715E-13 -1.896925E-13  2.767310E-13
         1  19  3.685947E-09  3.685863E-09  3.063394E+02 -1.018493E-13  2.023351E-13  1.677672E-13
         1  20  3.686341E-09  3.686397E-09  3.063394E+02 -7.400923E-14 -2.226249E-14 -4.782379E-13
         1  21  3.686706E-09  3.686650E-09  3.063394E+02  4.795656E-14  9.508223E-14  2.296014E-13
         1  22  3.686228E-09  3.686116E-09  3.063394E+02  8.221413E-14 -2.745184E-15  1.706953E-13
         1  23  3.686593E-09  3.686593E-09  3.063394E+02  3.785468E-14  5.478791E-14  1.852585E-13
         1  24  3.686509E-09  3.686481E-09  3.063394E+02 -4.051810E-14 -1.215075E-13  1.539941E-13
         1  25  3.687155E-09  3.687099E-09  3.063394E+02  1.333731E-13  1.775409E-13 -3.002170E-13
         1  26  3.685919E-09  3.685976E-09  3.063394E+02  1.483202E-14  1.671984E-13 -7.119712E-13
         1  27  3.686987E-09  3.687099E-09  3.063394E+02 -2.326172E-13  1.778123E-14  2.688101E-13

 internal state variables (elem, integ.pnt.,values) for set EALL and time  0.7200000E+02

         1   1 -4.359431E-03 -4.359431E-03  8.718862E-03  9.688204E-19  2.663919E-19 -4.209224E-19  2.396926E-38  2.669595E-03  2.669595E-03  2.669595E-03  2.669595E-03  2.242958E-38  2.669595E-03  2.669595E-03  1.074777E-38  2.669595E-03  2.669595E-03  4.675362E-38  7.860593E-38  4.440794E-38  9.234457E-38  9.778161E-38  4.412879E-38  9.632939E-38
         1   2 -4.359431E-03 -4.359431E-03  8.718862E-03 -1.525453E-18  3.666859E-19 -5.947759E-19  3.260363E-38  2.669595E-03  2.669595E-03  2.669595E-03  2.669595E-03  2.296669E-38  2.669595E-03  2.669595E-03  2.464573E-38  2.669595E-03  2.669595E-03  3.765425E-38  7.155249E-38  5.596143E-38  5.981456E-38  7.464757E-38  5.631623E-38  6.421872E-38
         1   3 -4.359431E-03 -4.359431E-03  8.718862E-03  1.560552E-18  6.394305E-19  3.942938E-19  1.350041E-38  2.669595E-03  2.669595E-03  2.669595E-03  2.669595E-03  1.975550E-38  2.669595E-03  2.669595E-03  3.088442E-38  2.669595E-03  2.669595E-03  4.250426E-38  1.236620E-37  5.545921E-38  7.773595E-38  4.761250E-38  6.637241E-38  6.996494E-38
         1   4 -4.359431E-03 -4.359431E-03  8.718862E-03  8.358627E-19  4.810618E-19 -7.062402E-19  3.204513E-38  2.669595E-03  2.669595E-03  2.669595E-03  2.669595E-03  2.460734E-38  2.669595E-03  2.669595E-03  3.918029E-38  2.669595E-03  2.669595E-03  3.984853E-38  9.519191E-38  7.092460E-38  4.702985E-38  5.507502E-38  8.737656E-38  8.692019E-38
         1   5 -4.359431E-03 -4.359431E-03  8.718862E-03  9.865287E-20  9.816582E-19 -8.796437E-19  1.316240E-38  2.669595E-03  2.669595E-03  2.669595E-03  2.669595E-03  1.439994E-38  2.669595E-03  2.669595E-03  1.580055E-38  2.669595E-03  2.669595E-03  1.256066E-38  3.375961E-38  2.654806E-38  4.302502E-38  2.463801E-38  4.261161E-38  3.592971E-38
         1   6 -4.359431E-03 -4.359431E-03  8.718862E-03  6.416804E-19  1.521959E-18 -6.871555E-19  1.824835E-38  2.669595E-03  2.669595E-03  2.669595E-03  2.669595E-03  7.511594E-39  2.669595E-03  2.669595E-03  1.601691E-38  2.669595E-03  2.669595E-03  1.860614E-38  5.775046E-38  5.799670E-38  7.212718E-38  4.299342E-38  1.680182E-38  4.826960E-38
         1   7 -4.359431E-03 -4.359431E-03  8.718862E-03 -2.666036E-19  3.539539E-19 -5.731501E-19  3.464922E-38  2.669595E-03  2.669595E-03  2.669595E-03  2.669595E-03  3.809971E-38  2.669595E-03  2.669595E-03  3.199481E-38  2.669595E-03  2.669595E-03  1.643001E-38  8.824289E-38  1.119322E-37  7.568265E-38  1.384219E-37  6.540887E-38  6.767126E-38
         1   8 -4.359431E-03 -4.359431E-03  8.718862E-03  1.633715E-18  9.899168E-19 -5.973170E-19  2.052036E-38  2.669595E-03  2.669595E-03  2.669595E-03  2.669595E-03  1.793769E-38  2.669595E-03  2.669595E-03  8.101653E-39  2.669595E-03  2.669595E-03  3.125216E-38  8.724391E-38  3.924244E-38  6.712519E-38  7.894886E-38  3.195543E-38  7.266207E-38
         1   9 -4.359431E-03 -4.359431E-03  8.718862E-03  5.394276E-19  1.247097E-18 -1.638665E-18  1.909808E-38  2.669595E-03  2.669595E-03  2.669595E-03  2.669595E-03  2.080954E-38  2.669595E-03  2.669595E-03  7.795899E-39  2.669595E-03  2.669595E-03  3.063240E-38  3.187846E-38  6.538041E-38  4.440361E-38  4.600493E-38  3.850418E-38  6.810799E-38
         1  10 -4.359431E-03 -4.359431E-03  8.718862E-03 -2.244346E-18  9.987048E-20 -3.050907E-19  5.205060E-38  2.669595E-03  2.669595E-03  2.669595E-03  2.669595E-03  6.128245E-38  2.669595E-03  2.669595E-03  5.431429E-38  2.669595E-03  2.669595E-03  2.284333E-38  8.287466E-38  9.931356E-38  1.194801E-37  7.690500E-38  1.358400E-37  7.882147E-38
         1  11 -4.359431E-03 -4.359431E-03  8.718862E-03  5.296074E-19 -7.067431E-21  2.705053E-18  5.291874E-38  2.669595E-03  2.669595E-03  2.669595E-03  2.669595E-03  5.930244E-38  2.669595E-03  2.669595E-03  4.349713E-38  2.669595E-03  2.669595E-03  7.329919E-38  5.083151E-38  6.068892E-38  8.830491E-38  1.115765E-37  1.271485E-37  1.357970E-37
         1  12 -4.359431E-03 -4.359431E-03  8.718862E-03  7.369716E-19  4.221612E-18 -1.480825E-18  5.761437E-38  2.669595E-03  2.669595E-03  2.669595E-03  2.669595E-03  7.919206E-38  2.669595E-03  2.669595E-03  6.062918E-38  2.669595E-03  2.669595E-03  5.341602E-38  1.464955E-37  2.016345E-37  1.939185E-38  5.365316E-38  1.970157E-37  1.507572E-37
         1  13 -4.359431E-03 -4.359431E-03  8.718862E-03  7.694500E-19  1.673631E-18  1.581066E-18  2.643535E-38  2.669595E-03  2.669595E-03  2.669595E-03  2.669595E-03  2.145738E-38  2.669595E-03  2.669595E-03  3.293935E-38  2.669595E-03  2.669595E-03  6.019813E-38  9.096887E-38  8.252732E-38  3.167194E-38  2.680705E-38  5.768622E-38  1.005336E-37
         1  14 -4.359431E-03 -4.359431E-03  8.718862E-03  1.250697E-18 -9.293804E-19  1.940235E-19  2.174191E-38  2.669595E-03  2.669595E-03  2.669595E-03  2.669595E-03  2.111242E-38  2.669595E-03  2.669595E-03  1.467469E-38  2.669595E-03  2.669595E-03  2.063172E-38  5.105730E-38  4.695569E-38  2.090879E-38  3.934272E-38  5.048819E-38  4.416055E-38
         1  15 -4.359431E-03 -4.359431E-03  8.718862E-03  1.146671E-18  1.555364E-19 -1.311498E-18  6.651830E-38  2.669595E-03  2.669595E-03  2.669595E-03  2.669595E-03  1.715444E-38  2.669595E-03  2.669595E-03  6.194946E-39  2.669595E-03  2.669595E-03  5.198236E-38  1.093877E-37  7.919968E-38  5.333835E-38  9.023066E-38  2.571259E-38  1.623178E-37
         1  16 -4.359431E-03 -4.359431E-03  8.718862E-03  3.589620E-18  1.231956E-18 -7.650825E-19  1.938273E-38  2.669595E-03  2.669595E-03  2.669595E-03  2.669595E-03  9.935044E-39  2.669595E-03  2.669595E-03  2.802058E-38  2.669595E-03  2.669595E-03  2.839091E-38  4.854310E-38  8.211061E-38  5.522024E-38  3.599951E-38  4.468353E-38  6.441073E-38
         1  17 -4.359431E-03 -4.359431E-03  8.718862E-03  2.403721E-19 -2.119832E-18  2.368251E-18  2.781422E-38  2.669595E-03  2.669595E-03  2.669595E-03  2.669595E-03  2.721119E-38  2.669595E-03  2.669595E-03  4.114911E-38  2.669595E-03  2.669595E-03  2.977004E-38  5.510472E-38  7.023353E-38  5.696192E-38  7.763577E-38  7.384949E-38  6.624440E-38
         1  18 -4.359431E-03 -4.359431E-03  8.718862E-03 -4.938334E-18 -8.905757E-19  4.065520E-18  4.968413E-38  2.669595E-03  2.669595E-03  2.669595E-03  2.669595E-03  7.349708E-38  2.669595E-03  2.669595E-03  5.394044E-38  2.669595E-03  2.669595E-03  5.943382E-38  6.911153E-38  9.148590E-38  1.174022E-37  2.116713E-37  1.679700E-37  1.299239E-37
         1  19 -4.359431E-03 -4.359431E-03  8.718862E-03 -3.167268E-18  1.998389E-18  7.713638E-18  1.188492E-37  2.669595E-03  2.669595E-03  2.669595E-03  2.669595E-03  1.235448E-37  2.669595E-03  2.669595E-03  1.641576E-37  2.669595E-03  2.669595E-03  9.244582E-38  8.338191E-38  1.453561E-37  3.223496E-37  3.520419E-37  3.940699E-37  2.887138E-37
         1  20 -4.359431E-03 -4.359431E-03  8.718862E-03  6.713266E-19  1.131504E-18 -3.963638E-18  6.092839E-38  2.669595E-03  2.669595E-03  2.669595E-03  2.669595E-03  4.317217E-38  2.669595E-03  2.669595E-03  4.073396E-38  2.669595E-03  2.669595E-03  5.728295E-38  7.041938E-38  5.537592E-38  1.656230E-37  1.275069E-37  1.013449E-37  1.566737E-37
         1  21 -4.359431E-03 -4.359431E-03  8.718862E-03  1.739356E-18 -4.804530E-19  5.376012E-19  7.505391E-38  2.669595E-03  2.669595E-03  2.669595E-03  2.669595E-03  4.108149E-38  2.669595E-03  2.669595E-03  6.361966E-38  2.669595E-03  2.669595E-03  6.526942E-38  9.236390E-38  1.358677E-37  1.033624E-37  1.192775E-37  1.434254E-37  1.911759E-37
         1  22 -4.359431E-03 -4.359431E-03  8.718862E-03  2.812308E-18 -2.884147E-18  1.710107E-18  4.410039E-38  2.669595E-03  2.669595E-03  2.669595E-03  2.669595E-03  3.854742E-38  2.669595E-03  2.669595E-03  5.213065E-38  2.669595E-03  2.669595E-03  4.496727E-38  1.179629E-37  1.539361E-37  3.307170E-38  4.426542E-38  1.156701E-37  1.220072E-37
         1  23 -4.359431E-03 -4.359431E-03  8.718862E-03  1.414333E-18  1.136136E-18  1.482440E-18  3.582260E-38  2.669595E-03  2.669595E-03  2.669595E-03  2.669595E-03  1.738931E-38  2.669595E-03  2.669595E-03  3.082186E-38  2.669595E-03  2.669595E-03  3.190647E-38  4.183771E-38  3.544736E-38  1.893919E-38  3.166142E-38  2.745002E-38  4.775912E-38
         1  24 -4.359431E-03 -4.359431E-03  8.718862E-03  5.062345E-19 -2.203053E-18  5.904349E-19  2.112345E-38  2.669595E-03  2.669595E-03  2.669595E-03  2.669595E-03  5.228798E-38  2.669595E-03  2.669595E-03  3.288943E-38  2.669595E-03  2.669595E-03  1.330924E-38  6.330045E-38  8.937629E-38  5.476026E-38  5.660973E-38  1.106028E-37  5.922786E-38
         1  25 -4.359431E-03 -4.359431E-03  8.718862E-03  5.594891E-18  5.183445E-18 -7.652413E-18  1.714382E-37  2.669595E-03  2.669595E-03  2.669595E-03  2.669595E-03  6.955126E-38  2.669595E-03  2.669595E-03  2.750954E-38  2.669595E-03  2.669595E-03  1.883576E-37  2.450918E-37  2.415988E-37  2.477339E-37  2.775861E-37  1.398146E-37  4.928356E-37
         1  26 -4.359431E-03 -4.359431E-03  8.718862E-03 -4.685945E-19 -6.708236E-19 -2.461954E-18  7.190999E-38  2.669595E-03  2.669595E-03  2.669595E-03  2.669595E-03  6.337514E-38  2.669595E-03  2.669595E-03  6.865135E-38  2.669595E-03  2.669595E-03  8.073834E-38  7.912325E-38  4.038636E-38  1.633545E-37  1.759964E-37  1.685808E-37  2.050386E-37
         1  27 -4.359431E-03 -4.359431E-03  8.718862E-03 -4.159249E-18  5.954906E-19  1.440538E-18  8.488258E-38  2.669595E-03  2.669595E-03  2.669595E-03  2.669595E-03  4.088002E-38  2.669595E-03  2.669595E-03  5.567062E-38  2.669595E-03  2.669595E-03  6.546657E-38  1.588561E-37  1.709710E-37  1.775553E-37  1.596979E-37  1.314364E-37  2.024992E-37
