
 displacements (vx,vy,vz) for set NALL and time  0.1000000E+01

         1  0.000000E+00  0.000000E+00  0.000000E+00
         2  4.510320E-04 -5.468397E-04 -1.483055E-02
         3  6.339889E-04  2.757654E-12 -1.267281E-02
         4  0.000000E+00  0.000000E+00  0.000000E+00
         5  2.723808E-04 -4.217865E-04 -5.918164E-03
         6  6.199965E-04 -2.555218E-04 -1.320291E-02
         7  4.193115E-04  2.705432E-12 -4.910377E-03
         8  0.000000E+00  0.000000E+00  0.000000E+00
         9  4.510320E-04  5.468397E-04 -1.483055E-02
        10  0.000000E+00  0.000000E+00  0.000000E+00
        11  6.199965E-04  2.555218E-04 -1.320291E-02
        12  2.723808E-04  4.217865E-04 -5.918164E-03
        13  0.000000E+00  0.000000E+00  0.000000E+00
        14  8.093594E-04 -6.161303E-04 -3.298116E-02
        15  1.315382E-03  1.058459E-12 -2.841996E-02
        16  6.669322E-04 -5.726282E-04 -2.377210E-02
        17  9.708530E-04 -3.245433E-04 -2.995464E-02
        18  9.355028E-04  2.185598E-12 -2.068916E-02
        19  8.093595E-04  6.161303E-04 -3.298116E-02
        20  9.708530E-04  3.245433E-04 -2.995464E-02
        21  6.669323E-04  5.726282E-04 -2.377210E-02

 temperatures for set NALL and time  0.1000000E+01

         1  3.730000E+02
         2  3.730000E+02
         3  3.730000E+02
         4  3.730000E+02
         5  3.730000E+02
         6  3.730000E+02
         7  3.730000E+02
         8  3.730000E+02
         9  3.730000E+02
        10  3.730000E+02
        11  3.730000E+02
        12  3.730000E+02
        13  3.730000E+02
        14  3.730000E+02
        15  3.730000E+02
        16  3.730000E+02
        17  3.730000E+02
        18  3.730000E+02
        19  3.730000E+02
        20  3.730000E+02
        21  3.730000E+02

 forces (fx,fy,fz) for set NALL and time  0.1000000E+01

         1  2.024755E-01  4.631554E-01  1.566333E-03
         2  4.834656E-05 -1.220013E-05  2.087644E-03
         3  1.005649E-04 -7.241360E-13  4.175638E-03
         4 -3.133808E-01 -1.645226E-09  5.565080E-03
         5 -4.790862E-07 -1.942591E-07 -1.246954E-07
         6 -1.974881E-04  4.651903E-05 -8.350221E-03
         7 -9.171975E-07 -6.945659E-14 -2.356580E-07
         8 -5.451946E-01  1.288325E-01  2.070243E-02
         9  4.834656E-05  1.220013E-05  2.087644E-03
        10  2.024755E-01 -4.631554E-01  1.566332E-03
        11 -1.974881E-04 -4.651902E-05 -8.350221E-03
        12 -4.790863E-07  1.942592E-07 -1.246954E-07
        13 -5.451946E-01 -1.288325E-01  2.070243E-02
        14  4.715422E-05 -7.678888E-06  2.087951E-03
        15  1.000104E+00 -9.548716E-13  4.174421E-03
        16 -2.035265E-04  6.700159E-05 -8.349916E-03
        17 -1.960138E-04  5.987948E-05 -8.350601E-03
        18 -3.803260E-04  1.681898E-12 -1.670190E-02
        19  4.715422E-05  7.678888E-06  2.087951E-03
        20 -1.960138E-04 -5.987947E-05 -8.350600E-03
        21 -2.035265E-04 -6.700158E-05 -8.349916E-03

 stresses (elem, integ.pnt.,sxx,syy,szz,sxy,sxz,syz) for set EALL and time  0.1000000E+01

         1   1 -9.208683E+01 -1.933639E+02 -4.980247E+01 -8.873759E+01 -1.773410E+00  1.774360E+00 _shell_0000000001   
         1   2  6.148416E+01  3.070404E+00  7.442492E+00  2.480068E+01 -1.699584E+00 -7.452395E-01 _shell_0000000001   
         1   3 -8.385782E+00 -1.729651E+02 -4.325677E+01 -1.854192E+01 -1.939196E+00 -6.876366E-01 _shell_0000000001   
         1   4  3.835079E+01 -3.039780E+01  6.301386E+00  7.919921E+00 -5.179109E+00  1.704888E+00 _shell_0000000001   
         1   5  1.625685E+02 -1.003825E+02  4.968592E+01 -1.020170E+02 -4.971361E+00  1.400957E+00 _shell_0000000001   
         1   6  3.153739E+01 -6.662037E-03 -7.036778E+00  1.118370E+00 -4.017657E+00 -4.099609E-02 _shell_0000000001   
         1   7  2.179703E+02 -9.462836E+01  4.323584E+01 -2.708387E+01 -5.382090E+00 -8.972033E-01 _shell_0000000001   
         1   8  2.314356E+01 -3.631442E+01 -5.499186E+00 -1.169902E+01  3.171690E+00  2.225356E+00 _shell_0000000001   
         2   1 -8.385783E+00 -1.729651E+02 -4.325677E+01  1.854193E+01 -1.939197E+00  6.876366E-01 _shell_0000000002   
         2   2  3.835079E+01 -3.039780E+01  6.301386E+00 -7.919921E+00 -5.179109E+00 -1.704888E+00 _shell_0000000002   
         2   3 -9.208682E+01 -1.933639E+02 -4.980247E+01  8.873759E+01 -1.773410E+00 -1.774360E+00 _shell_0000000002   
         2   4  6.148416E+01  3.070404E+00  7.442492E+00 -2.480068E+01 -1.699584E+00  7.452394E-01 _shell_0000000002   
         2   5  2.179703E+02 -9.462836E+01  4.323584E+01  2.708387E+01 -5.382091E+00  8.972032E-01 _shell_0000000002   
         2   6  2.314356E+01 -3.631442E+01 -5.499186E+00  1.169902E+01  3.171690E+00 -2.225356E+00 _shell_0000000002   
         2   7  1.625685E+02 -1.003825E+02  4.968592E+01  1.020170E+02 -4.971361E+00 -1.400957E+00 _shell_0000000002   
         2   8  3.153739E+01 -6.660357E-03 -7.036778E+00 -1.118371E+00 -4.017657E+00  4.099607E-02 _shell_0000000002   
         3   1  4.697102E+01  5.989882E+00  6.801512E+00  2.494411E+01 -3.433945E+00 -7.093821E-01 _shell_0000000003   
         3   2  5.146015E+00  8.337603E+00 -1.705963E+00  8.248458E+00 -1.673225E+00  1.307934E-01 _shell_0000000003   
         3   3  6.123408E+01 -2.306729E+01  5.759415E+00  1.627659E+01 -3.153249E-01 -2.725232E+00 _shell_0000000003   
         3   4  1.166910E+02  1.028436E+01 -1.478216E+00  7.714168E+01  6.284711E+00  8.108189E-01 _shell_0000000003   
         3   5  9.361210E+00  7.107276E+00 -6.469509E+00  8.256504E+00  4.234786E-01 -2.400606E-01 _shell_0000000003   
         3   6 -2.248906E+01 -9.510023E+00  1.598358E+00 -1.745129E+01  2.593766E+00  7.890924E-01 _shell_0000000003   
         3   7  2.533385E+01 -7.853363E+00 -6.794822E+00 -5.119965E+00 -2.356422E+00 -2.217503E+00 _shell_0000000003   
         3   8  8.125990E+01  6.811429E+01  2.341715E+00  5.314093E+01 -9.087832E+00  1.457208E+00 _shell_0000000003   
         4   1  6.123408E+01 -2.306729E+01  5.759415E+00 -1.627659E+01 -3.153249E-01  2.725232E+00 _shell_0000000004   
         4   2  1.166910E+02  1.028436E+01 -1.478216E+00 -7.714168E+01  6.284711E+00 -8.108189E-01 _shell_0000000004   
         4   3  4.697102E+01  5.989881E+00  6.801512E+00 -2.494411E+01 -3.433945E+00  7.093821E-01 _shell_0000000004   
         4   4  5.146015E+00  8.337603E+00 -1.705962E+00 -8.248458E+00 -1.673225E+00 -1.307934E-01 _shell_0000000004   
         4   5  2.533385E+01 -7.853362E+00 -6.794821E+00  5.119964E+00 -2.356421E+00  2.217504E+00 _shell_0000000004   
         4   6  8.125990E+01  6.811429E+01  2.341715E+00 -5.314093E+01 -9.087832E+00 -1.457208E+00 _shell_0000000004   
         4   7  9.361211E+00  7.107275E+00 -6.469509E+00 -8.256505E+00  4.234786E-01  2.400606E-01 _shell_0000000004   
         4   8 -2.248906E+01 -9.510023E+00  1.598358E+00  1.745129E+01  2.593766E+00 -7.890924E-01 _shell_0000000004   
