
 stresses (elem, integ.pnt.,sxx,syy,szz,sxy,sxz,syz) for set EALL and time  0.1000000E+01

         1   1  5.656854E+00  1.127987E-13  5.656854E+00  1.252224E-14  5.656854E+00 -4.520224E-14
         1   2  5.656854E+00 -1.643130E-13  5.656854E+00  3.308722E-14  5.656854E+00  2.076860E-14
         1   3  5.656854E+00  1.865175E-14  5.656854E+00  1.038430E-14  5.656854E+00 -7.757682E-14
         1   4  5.656854E+00 -1.332268E-14  5.656854E+00 -8.246354E-15  5.656854E+00  1.751078E-14
         1   5  5.656854E+00  6.217249E-15  5.656854E+00 -1.484344E-13  5.656854E+00 -2.463726E-13
         1   6  5.656854E+00 -1.243450E-13  5.656854E+00 -3.488921E-13  5.656854E+00 -1.865101E-13
         1   7  5.656854E+00 -9.681145E-14  5.656854E+00 -1.499615E-13  5.656854E+00 -2.762020E-13
         1   8  5.656854E+00  2.042810E-14  5.656854E+00 -3.795359E-13  5.656854E+00 -1.870192E-13
         2   1  5.656854E+00  5.240253E-14  5.656854E+00 -1.119875E-15 -5.656854E+00  9.111713E-14
         2   2  5.656854E+00 -7.904788E-14  5.656854E+00  5.670641E-14 -5.656854E+00  6.566541E-14
         2   3  5.656854E+00 -1.687539E-13  5.656854E+00 -2.494268E-14 -5.656854E+00  5.283775E-14
         2   4  5.656854E+00  4.618528E-14  5.656854E+00  5.955700E-14 -5.656854E+00  5.833532E-14
         2   5  5.656854E+00  2.824407E-13  5.656854E+00  1.306182E-13 -5.656854E+00  1.187068E-13
         2   6  5.656854E+00 -3.996803E-14  5.656854E+00 -1.245098E-13 -5.656854E+00  5.446666E-14
         2   7  5.656854E+00  6.838974E-14  5.656854E+00  1.059809E-13 -5.656854E+00  7.890030E-14
         2   8  5.656854E+00  9.237056E-14  5.656854E+00 -1.214556E-13 -5.656854E+00  4.530405E-14
